     Program PWSCF v.7.3.1 starts on  6May2024 at 18:49:52

     Reading input from Be2.pw.in

     Current dimensions of program PWSCF are:
     Max number of different atomic species (ntypx) = 10
     Max number of k-points (npk) =  40000
     Max angular momentum in pseudopotentials (lmaxx) =  4

     Using Slab Decomposition

     bravais-lattice index     =            0
     lattice parameter (alat)  =       3.9548  a.u.
     unit-cell volume          =     103.2133 (a.u.)^3
     number of atoms/cell      =            2
     number of atomic types    =            1
     number of electrons       =         4.00
     number of Kohn-Sham states=            4
     kinetic-energy cutoff     =      40.0000  Ry
     charge density cutoff     =     160.0000  Ry
     scf convergence threshold =      2.0E-02
     mixing beta               =       0.1000
     number of iterations used =            8  plain     mixing
     Exchange-correlation= PBE
                           (   1   4   3   4   0   0   0)

     celldm(1)=   3.954813  celldm(2)=   0.000000  celldm(3)=   0.000000
     celldm(4)=   0.000000  celldm(5)=   0.000000  celldm(6)=   0.000000

     crystal axes: (cart. coord. in units of alat)
               a(1) = (   0.995999   0.008871   0.088921 )
               a(2) = (  -0.514280   0.940431  -0.091932 )
               a(3) = (  -0.017749   0.086246   1.767016 )

     reciprocal axes: (cart. coord. in units 2 pi/alat)
               b(1) = (  1.000638  0.545583 -0.016578 )
               b(2) = ( -0.004798  1.055677 -0.051575 )
               b(3) = ( -0.050605  0.027468  0.564077 )

     PseudoPot. # 1 for Be read from file:
     ../pseudo/Be.pbe-n-rrkjus_psl.1.0.0.UPF
     MD5 check sum: 734a25375992c446e1da9bf329ae4716
     Pseudo is Ultrasoft + core correction, Zval =  2.0
     Generated using &quot;atomic&quot; code by A. Dal Corso  v.6.6
     Using radial grid of 1041 points,  4 beta functions with:
                l(1) =   0
                l(2) =   0
                l(3) =   1
                l(4) =   1
     Q(r) pseudized with 0 coefficients

     atomic species   valence    mass     pseudopotential
     Be                2.00     9.01218     Be( 1.00)

     No symmetry found

                                    s                        frac. trans.

      isym =  1     identity

 cryst.   s( 1) = (     1          0          0      )
                  (     0          1          0      )
                  (     0          0          1      )

 cart.    s( 1) = (  1.0000000  0.0000000  0.0000000 )
                  (  0.0000000  1.0000000  0.0000000 )
                  (  0.0000000 -0.0000000  1.0000000 )

   Cartesian axes

     site n.     atom                  positions (alat units)
         1        Be     tau(   1) = (   0.8375790   0.1533850   1.2794707  )
         2        Be     tau(   2) = (  -0.2976734   0.7817589   0.4263220  )

   Crystallographic axes

     site n.     atom                  positions (cryst. coord.)
         1        Be     tau(   1) = (  0.9005862  0.0919181  0.6835477  )
         2        Be     tau(   2) = (  0.1215839  0.8047255  0.2770154  )

     number of k points=   512  Fermi-Dirac smearing, width (Ry)=  0.0019
                       cart. coord. in units 2pi/alat
        k(    1) = (   0.0000000   0.0000000   0.0000000), wk =   0.0039062
        k(    2) = (  -0.0063256   0.0034335   0.0705096), wk =   0.0039062
        k(    3) = (  -0.0126512   0.0068670   0.1410192), wk =   0.0039062
        k(    4) = (  -0.0189767   0.0103005   0.2115289), wk =   0.0039062
        k(    5) = (   0.0253023  -0.0137340  -0.2820385), wk =   0.0039062
        k(    6) = (   0.0189767  -0.0103005  -0.2115289), wk =   0.0039062
        k(    7) = (   0.0126512  -0.0068670  -0.1410192), wk =   0.0039062
        k(    8) = (   0.0063256  -0.0034335  -0.0705096), wk =   0.0039062
        k(    9) = (  -0.0005998   0.1319596  -0.0064468), wk =   0.0039062
        k(   10) = (  -0.0069253   0.1353931   0.0640628), wk =   0.0039062
        k(   11) = (  -0.0132509   0.1388266   0.1345724), wk =   0.0039062
        k(   12) = (  -0.0195765   0.1422601   0.2050820), wk =   0.0039062
        k(   13) = (   0.0247026   0.1182256  -0.2884853), wk =   0.0039062
        k(   14) = (   0.0183770   0.1216591  -0.2179757), wk =   0.0039062
        k(   15) = (   0.0120514   0.1250926  -0.1474661), wk =   0.0039062
        k(   16) = (   0.0057258   0.1285261  -0.0769564), wk =   0.0039062
        k(   17) = (  -0.0011995   0.2639192  -0.0128936), wk =   0.0039062
        k(   18) = (  -0.0075251   0.2673527   0.0576160), wk =   0.0039062
        k(   19) = (  -0.0138507   0.2707861   0.1281256), wk =   0.0039062
        k(   20) = (  -0.0201763   0.2742196   0.1986352), wk =   0.0039062
        k(   21) = (   0.0241028   0.2501852  -0.2949321), wk =   0.0039062
        k(   22) = (   0.0177772   0.2536187  -0.2244225), wk =   0.0039062
        k(   23) = (   0.0114517   0.2570522  -0.1539129), wk =   0.0039062
        k(   24) = (   0.0051261   0.2604857  -0.0834033), wk =   0.0039062
        k(   25) = (  -0.0017993   0.3958787  -0.0193405), wk =   0.0039062
        k(   26) = (  -0.0081248   0.3993122   0.0511692), wk =   0.0039062
        k(   27) = (  -0.0144504   0.4027457   0.1216788), wk =   0.0039062
        k(   28) = (  -0.0207760   0.4061792   0.1921884), wk =   0.0039062
        k(   29) = (   0.0235031   0.3821448  -0.3013789), wk =   0.0039062
        k(   30) = (   0.0171775   0.3855783  -0.2308693), wk =   0.0039062
        k(   31) = (   0.0108519   0.3890117  -0.1603597), wk =   0.0039062
        k(   32) = (   0.0045263   0.3924452  -0.0898501), wk =   0.0039062
        k(   33) = (   0.0023990  -0.5278383   0.0257873), wk =   0.0039062
        k(   34) = (  -0.0039266  -0.5244048   0.0962969), wk =   0.0039062
        k(   35) = (  -0.0102521  -0.5209713   0.1668065), wk =   0.0039062
        k(   36) = (  -0.0165777  -0.5175378   0.2373161), wk =   0.0039062
        k(   37) = (   0.0277014  -0.5415723  -0.2562512), wk =   0.0039062
        k(   38) = (   0.0213758  -0.5381388  -0.1857416), wk =   0.0039062
        k(   39) = (   0.0150502  -0.5347053  -0.1152320), wk =   0.0039062
        k(   40) = (   0.0087246  -0.5312718  -0.0447223), wk =   0.0039062
        k(   41) = (   0.0017993  -0.3958787   0.0193405), wk =   0.0039062
        k(   42) = (  -0.0045263  -0.3924452   0.0898501), wk =   0.0039062
        k(   43) = (  -0.0108519  -0.3890117   0.1603597), wk =   0.0039062
        k(   44) = (  -0.0171775  -0.3855783   0.2308693), wk =   0.0039062
        k(   45) = (   0.0271016  -0.4096127  -0.2626980), wk =   0.0039062
        k(   46) = (   0.0207760  -0.4061792  -0.1921884), wk =   0.0039062
        k(   47) = (   0.0144504  -0.4027457  -0.1216788), wk =   0.0039062
        k(   48) = (   0.0081248  -0.3993122  -0.0511692), wk =   0.0039062
        k(   49) = (   0.0011995  -0.2639192   0.0128936), wk =   0.0039062
        k(   50) = (  -0.0051261  -0.2604857   0.0834033), wk =   0.0039062
        k(   51) = (  -0.0114517  -0.2570522   0.1539129), wk =   0.0039062
        k(   52) = (  -0.0177772  -0.2536187   0.2244225), wk =   0.0039062
        k(   53) = (   0.0265018  -0.2776531  -0.2691448), wk =   0.0039062
        k(   54) = (   0.0201763  -0.2742196  -0.1986352), wk =   0.0039062
        k(   55) = (   0.0138507  -0.2707861  -0.1281256), wk =   0.0039062
        k(   56) = (   0.0075251  -0.2673527  -0.0576160), wk =   0.0039062
        k(   57) = (   0.0005998  -0.1319596   0.0064468), wk =   0.0039062
        k(   58) = (  -0.0057258  -0.1285261   0.0769564), wk =   0.0039062
        k(   59) = (  -0.0120514  -0.1250926   0.1474661), wk =   0.0039062
        k(   60) = (  -0.0183770  -0.1216591   0.2179757), wk =   0.0039062
[...]
        k(  498) = (  -0.1302058  -0.3286836   0.0854755), wk =   0.0039062
        k(  499) = (  -0.1365314  -0.3252501   0.1559851), wk =   0.0039062
        k(  500) = (  -0.1428569  -0.3218166   0.2264948), wk =   0.0039062
        k(  501) = (  -0.0985779  -0.3458511  -0.2670726), wk =   0.0039062
        k(  502) = (  -0.1049035  -0.3424176  -0.1965630), wk =   0.0039062
        k(  503) = (  -0.1112290  -0.3389841  -0.1260533), wk =   0.0039062
        k(  504) = (  -0.1175546  -0.3355506  -0.0555437), wk =   0.0039062
        k(  505) = (  -0.1244800  -0.2001575   0.0085191), wk =   0.0039062
        k(  506) = (  -0.1308055  -0.1967240   0.0790287), wk =   0.0039062
        k(  507) = (  -0.1371311  -0.1932905   0.1495383), wk =   0.0039062
        k(  508) = (  -0.1434567  -0.1898570   0.2200479), wk =   0.0039062
        k(  509) = (  -0.0991776  -0.2138915  -0.2735194), wk =   0.0039062
        k(  510) = (  -0.1055032  -0.2104580  -0.2030098), wk =   0.0039062
        k(  511) = (  -0.1118288  -0.2070245  -0.1325002), wk =   0.0039062
        k(  512) = (  -0.1181544  -0.2035910  -0.0619905), wk =   0.0039062

                       cryst. coord.
        k(    1) = (   0.0000000   0.0000000   0.0000000), wk =   0.0039062
        k(    2) = (  -0.0000000   0.0000000   0.1250000), wk =   0.0039062
        k(    3) = (  -0.0000000   0.0000000   0.2500000), wk =   0.0039062
        k(    4) = (  -0.0000000   0.0000000   0.3750000), wk =   0.0039062
        k(    5) = (   0.0000000   0.0000000  -0.5000000), wk =   0.0039062
        k(    6) = (   0.0000000  -0.0000000  -0.3750000), wk =   0.0039062
        k(    7) = (   0.0000000   0.0000000  -0.2500000), wk =   0.0039062
        k(    8) = (   0.0000000   0.0000000  -0.1250000), wk =   0.0039062
        k(    9) = (   0.0000000   0.1250000   0.0000000), wk =   0.0039062
        k(   10) = (   0.0000000   0.1250000   0.1250000), wk =   0.0039062
        k(   11) = (  -0.0000000   0.1250000   0.2500000), wk =   0.0039062
        k(   12) = (   0.0000000   0.1250000   0.3750000), wk =   0.0039062
        k(   13) = (   0.0000000   0.1250000  -0.5000000), wk =   0.0039062
        k(   14) = (   0.0000000   0.1250000  -0.3750000), wk =   0.0039062
        k(   15) = (   0.0000000   0.1250000  -0.2500000), wk =   0.0039062
        k(   16) = (   0.0000000   0.1250000  -0.1250000), wk =   0.0039062
        k(   17) = (   0.0000000   0.2500000   0.0000000), wk =   0.0039062
        k(   18) = (  -0.0000000   0.2500000   0.1250000), wk =   0.0039062
        k(   19) = (   0.0000000   0.2500000   0.2500000), wk =   0.0039062
        k(   20) = (   0.0000000   0.2500000   0.3750000), wk =   0.0039062
        k(   21) = (   0.0000000   0.2500000  -0.5000000), wk =   0.0039062
        k(   22) = (   0.0000000   0.2500000  -0.3750000), wk =   0.0039062
        k(   23) = (   0.0000000   0.2500000  -0.2500000), wk =   0.0039062
        k(   24) = (   0.0000000   0.2500000  -0.1250000), wk =   0.0039062
        k(   25) = (   0.0000000   0.3750000  -0.0000000), wk =   0.0039062
        k(   26) = (  -0.0000000   0.3750000   0.1250000), wk =   0.0039062
        k(   27) = (  -0.0000000   0.3750000   0.2500000), wk =   0.0039062
        k(   28) = (  -0.0000000   0.3750000   0.3750000), wk =   0.0039062
        k(   29) = (   0.0000000   0.3750000  -0.5000000), wk =   0.0039062
        k(   30) = (   0.0000000   0.3750000  -0.3750000), wk =   0.0039062
        k(   31) = (   0.0000000   0.3750000  -0.2500000), wk =   0.0039062
        k(   32) = (   0.0000000   0.3750000  -0.1250000), wk =   0.0039062
        k(   33) = (   0.0000000  -0.5000000  -0.0000000), wk =   0.0039062
        k(   34) = (  -0.0000000  -0.5000000   0.1250000), wk =   0.0039062
        k(   35) = (   0.0000000  -0.5000000   0.2500000), wk =   0.0039062
        k(   36) = (   0.0000000  -0.5000000   0.3750000), wk =   0.0039062
        k(   37) = (   0.0000000  -0.5000000  -0.5000000), wk =   0.0039062
        k(   38) = (   0.0000000  -0.5000000  -0.3750000), wk =   0.0039062
        k(   39) = (   0.0000000  -0.5000000  -0.2500000), wk =   0.0039062
        k(   40) = (   0.0000000  -0.5000000  -0.1250000), wk =   0.0039062
        k(   41) = (   0.0000000  -0.3750000   0.0000000), wk =   0.0039062
        k(   42) = (   0.0000000  -0.3750000   0.1250000), wk =   0.0039062
        k(   43) = (   0.0000000  -0.3750000   0.2500000), wk =   0.0039062
        k(   44) = (   0.0000000  -0.3750000   0.3750000), wk =   0.0039062
        k(   45) = (   0.0000000  -0.3750000  -0.5000000), wk =   0.0039062
        k(   46) = (   0.0000000  -0.3750000  -0.3750000), wk =   0.0039062
        k(   47) = (   0.0000000  -0.3750000  -0.2500000), wk =   0.0039062
        k(   48) = (   0.0000000  -0.3750000  -0.1250000), wk =   0.0039062
        k(   49) = (   0.0000000  -0.2500000  -0.0000000), wk =   0.0039062
        k(   50) = (   0.0000000  -0.2500000   0.1250000), wk =   0.0039062
        k(   51) = (  -0.0000000  -0.2500000   0.2500000), wk =   0.0039062
        k(   52) = (   0.0000000  -0.2500000   0.3750000), wk =   0.0039062
        k(   53) = (   0.0000000  -0.2500000  -0.5000000), wk =   0.0039062
        k(   54) = (   0.0000000  -0.2500000  -0.3750000), wk =   0.0039062
        k(   55) = (   0.0000000  -0.2500000  -0.2500000), wk =   0.0039062
        k(   56) = (   0.0000000  -0.2500000  -0.1250000), wk =   0.0039062
        k(   57) = (   0.0000000  -0.1250000  -0.0000000), wk =   0.0039062
        k(   58) = (  -0.0000000  -0.1250000   0.1250000), wk =   0.0039062
        k(   59) = (  -0.0000000  -0.1250000   0.2500000), wk =   0.0039062
        k(   60) = (   0.0000000  -0.1250000   0.3750000), wk =   0.0039062
[...]
        k(  498) = (  -0.1250000  -0.2500000   0.1250000), wk =   0.0039062
        k(  499) = (  -0.1250000  -0.2500000   0.2500000), wk =   0.0039062
        k(  500) = (  -0.1250000  -0.2500000   0.3750000), wk =   0.0039062
        k(  501) = (  -0.1250000  -0.2500000  -0.5000000), wk =   0.0039062
        k(  502) = (  -0.1250000  -0.2500000  -0.3750000), wk =   0.0039062
        k(  503) = (  -0.1250000  -0.2500000  -0.2500000), wk =   0.0039062
        k(  504) = (  -0.1250000  -0.2500000  -0.1250000), wk =   0.0039062
        k(  505) = (  -0.1250000  -0.1250000  -0.0000000), wk =   0.0039062
        k(  506) = (  -0.1250000  -0.1250000   0.1250000), wk =   0.0039062
        k(  507) = (  -0.1250000  -0.1250000   0.2500000), wk =   0.0039062
        k(  508) = (  -0.1250000  -0.1250000   0.3750000), wk =   0.0039062
        k(  509) = (  -0.1250000  -0.1250000  -0.5000000), wk =   0.0039062
        k(  510) = (  -0.1250000  -0.1250000  -0.3750000), wk =   0.0039062
        k(  511) = (  -0.1250000  -0.1250000  -0.2500000), wk =   0.0039062
        k(  512) = (  -0.1250000  -0.1250000  -0.1250000), wk =   0.0039062

     Initial potential from superposition of free atoms

     starting charge       3.9997, renormalised to       4.0000
     Starting wfcs are    8 randomized atomic wfcs

     Self-consistent Calculation

     iteration #  1     ecut=    40.00 Ry     beta= 0.10
     Davidson diagonalization with overlap

     ethr =  1.00E-02,  avg # of iterations =  3.2

     total energy              =      -5.29803139 Ry
     estimated scf accuracy    <       0.04491748 Ry

[...]

     total energy              =      -5.28497316 Ry
     estimated scf accuracy    <       0.07306179 Ry

     iteration #  4     ecut=    40.00 Ry     beta= 0.10
     Davidson diagonalization with overlap

     ethr =  1.01E-03,  avg # of iterations =  1.4

     End of self-consistent calculation

          k = 0.0000 0.0000 0.0000 (   439 PWs)   bands (ev):

    -3.2719   3.4411   7.9420  24.3870

     occupation numbers
     1.0000   1.0000   1.0000   0.0000

          k =-0.0063 0.0034 0.0705 (   431 PWs)   bands (ev):

[...]

          k = 0.3822 0.0692-0.0703 (   449 PWs)   bands (ev):

[...]

          k =-0.1182-0.2036-0.0620 (   433 PWs)   bands (ev):

    -1.8386   4.5793   9.4402  17.7690

     occupation numbers
     1.0000   1.0000   0.0000   0.0000

     the Fermi energy is     8.4469 ev

!    total energy              =      -5.29740616 Ry
     estimated scf accuracy    <       0.00071666 Ry
     smearing contrib. (-TS)   =      -0.00004929 Ry
     internal energy E=F+TS    =      -5.29735687 Ry

     The total energy is F=E-TS. E is the sum of the following terms:
     one-electron contribution =       3.93512420 Ry
     hartree contribution      =       0.10756301 Ry
     xc contribution           =      -3.34887910 Ry
     ewald contribution        =      -5.99116498 Ry

     convergence has been achieved in   4 iterations

     Forces acting on atoms (cartesian axes, Ry/au):

     atom    1 type  1   force =    -0.08316495    0.05656806    0.15323341
     atom    2 type  1   force =     0.08316495   -0.05656806   -0.15323341
     The non-local contrib.  to forces
     atom    1 type  1   force =    -0.08252833    0.06515689    0.15852863
     atom    2 type  1   force =     0.08264908   -0.06514747   -0.15861278
     The ionic contribution  to forces
     atom    1 type  1   force =    -0.09567879    0.07766111    0.59865235
     atom    2 type  1   force =     0.09567879   -0.07766111   -0.59865235
     The local contribution  to forces
     atom    1 type  1   force =     0.09052458   -0.08243086   -0.58275218
     atom    2 type  1   force =    -0.09057706    0.08242793    0.58278263
     The core correction contribution to forces
     atom    1 type  1   force =     0.00372606   -0.00347174   -0.01050445
     atom    2 type  1   force =    -0.00363780    0.00346166    0.01052120
     The Hubbard contrib.    to forces
     atom    1 type  1   force =     0.00000000    0.00000000    0.00000000
     atom    2 type  1   force =     0.00000000    0.00000000    0.00000000
     The SCF correction term to forces
     atom    1 type  1   force =     0.00087059   -0.00035074   -0.01070834
     atom    2 type  1   force =    -0.00086902    0.00034755    0.01071047

     Total force =     0.259217     Total SCF correction =     0.015203

     Computing stress (Cartesian axis) and pressure

          total   stress  (Ry/bohr**3)                   (kbar)     P=      193.95
   0.00259072  -0.00072665  -0.00173716          381.11     -106.89     -255.54
  -0.00072665  -0.00016145   0.00113423         -106.89      -23.75      166.85
  -0.00173716   0.00113423   0.00152611         -255.54      166.85      224.50

     kinetic stress (kbar)   3205.85    -46.11   -137.27
                              -46.11   2891.91     49.30
                             -137.27     49.30   2995.08

     local   stress (kbar)   -384.69     91.78    -66.89
                               91.78   -142.29     -6.06
                              -66.89     -6.06    811.76

     nonloc. stress (kbar)   1042.48    -26.02     -5.91
                              -26.02   1020.18     16.92
                               -5.91     16.92   1036.99

     hartree stress (kbar)    145.90      2.00     26.87
                                2.00    144.63    -14.69
                               26.87    -14.69   -137.22

     exc-cor stress (kbar)    110.93     -1.80     -0.95
                               -1.80    106.42      0.93
                               -0.95      0.93    106.54

     corecor stress (kbar)  -1286.25      5.91      4.00
                                5.91  -1272.17     -3.57
                                4.00     -3.57  -1275.27

     ewald   stress (kbar)  -2453.11   -132.67    -75.40
                             -132.67  -2772.43    124.01
                              -75.40    124.01  -3313.38

     hubbard stress (kbar)      0.00      0.00      0.00
                                0.00      0.00      0.00
                                0.00      0.00      0.00

     DFT-D   stress (kbar)      0.00      0.00      0.00
                                0.00      0.00      0.00
                                0.00      0.00      0.00

     XDM     stress (kbar)      0.00      0.00      0.00
                                0.00      0.00      0.00
                                0.00      0.00      0.00

     dft-nl  stress (kbar)      0.00      0.00      0.00
                                0.00      0.00      0.00
                                0.00      0.00      0.00

     TS-vdW  stress (kbar)      0.00      0.00      0.00
                                0.00      0.00      0.00
                                0.00      0.00      0.00

     MDB     stress (kbar)      0.00      0.00      0.00
                                0.00      0.00      0.00
                                0.00      0.00      0.00

     3D-RISM stress (kbar)      0.00      0.00      0.00
                                0.00      0.00      0.00
                                0.00      0.00      0.00

     Writing all to output data dir ../tmp/Be/Be.save/ :
     XML data file, charge density, pseudopotentials, collected wavefunctions

     General routines

   This run was terminated on:  18:50: 2   6May2024

   JOB DONE.