     Program PWSCF v.7.3.1 starts on  6May2024 at 18:50: 6

     Reading input from Be3.pw.in

     Current dimensions of program PWSCF are:
     Max number of different atomic species (ntypx) = 10
     Max number of k-points (npk) =  40000
     Max angular momentum in pseudopotentials (lmaxx) =  4

     Using Slab Decomposition

     bravais-lattice index     =            0
     lattice parameter (alat)  =       4.3311  a.u.
     unit-cell volume          =     103.7257 (a.u.)^3
     number of atoms/cell      =            2
     number of atomic types    =            1
     number of electrons       =         4.00
     number of Kohn-Sham states=            4
     kinetic-energy cutoff     =      40.0000  Ry
     charge density cutoff     =     160.0000  Ry
     scf convergence threshold =      2.0E-02
     mixing beta               =       0.1000
     number of iterations used =            8  plain     mixing
     Exchange-correlation= PBE
                           (   1   4   3   4   0   0   0)

     celldm(1)=   4.331094  celldm(2)=   0.000000  celldm(3)=   0.000000
     celldm(4)=   0.000000  celldm(5)=   0.000000  celldm(6)=   0.000000

     crystal axes: (cart. coord. in units of alat)
               a(1) = (   0.998389  -0.031348   0.047299 )
               a(2) = (  -0.449340   0.850792  -0.011790 )
               a(3) = (  -0.070257  -0.038205   1.524598 )

     reciprocal axes: (cart. coord. in units 2 pi/alat)
               b(1) = (  1.015627  0.537231  0.060265 )
               b(2) = (  0.036019  1.194837  0.031602 )
               b(3) = ( -0.031230 -0.007427  0.654286 )

     PseudoPot. # 1 for Be read from file:
     ../pseudo/Be.pbe-n-rrkjus_psl.1.0.0.UPF
     MD5 check sum: 734a25375992c446e1da9bf329ae4716
     Pseudo is Ultrasoft + core correction, Zval =  2.0
     Generated using &quot;atomic&quot; code by A. Dal Corso  v.6.6
     Using radial grid of 1041 points,  4 beta functions with:
                l(1) =   0
                l(2) =   0
                l(3) =   1
                l(4) =   1
     Q(r) pseudized with 0 coefficients

     atomic species   valence    mass     pseudopotential
     Be                2.00     9.01218     Be( 1.00)

     No symmetry found

                                    s                        frac. trans.

      isym =  1     identity

 cryst.   s( 1) = (     1          0          0      )
                  (     0          1          0      )
                  (     0          0          1      )

 cart.    s( 1) = (  1.0000000 -0.0000000  0.0000000 )
                  (  0.0000000  1.0000000  0.0000000 )
                  (  0.0000000 -0.0000000  1.0000000 )

   Cartesian axes

     site n.     atom                  positions (alat units)
         1        Be     tau(   1) = (   0.7648111   0.1400591   1.1683118  )
         2        Be     tau(   2) = (  -0.2718119   0.7138406   0.3892836  )

   Crystallographic axes

     site n.     atom                  positions (cryst. coord.)
         1        Be     tau(   1) = (  0.9224155  0.2318158  0.7394841  )
         2        Be     tau(   2) = (  0.1308983  0.8554345  0.2578898  )

     number of k points=   512  Fermi-Dirac smearing, width (Ry)=  0.0019
                       cart. coord. in units 2pi/alat
        k(    1) = (   0.0000000   0.0000000   0.0000000), wk =   0.0039062
        k(    2) = (  -0.0039038  -0.0009284   0.0817857), wk =   0.0039062
        k(    3) = (  -0.0078075  -0.0018567   0.1635714), wk =   0.0039062
        k(    4) = (  -0.0117113  -0.0027851   0.2453571), wk =   0.0039062
        k(    5) = (   0.0156151   0.0037134  -0.3271428), wk =   0.0039062
        k(    6) = (   0.0117113   0.0027851  -0.2453571), wk =   0.0039062
        k(    7) = (   0.0078075   0.0018567  -0.1635714), wk =   0.0039062
        k(    8) = (   0.0039038   0.0009284  -0.0817857), wk =   0.0039062
        k(    9) = (   0.0045023   0.1493546   0.0039502), wk =   0.0039062
        k(   10) = (   0.0005986   0.1484262   0.0857359), wk =   0.0039062
        k(   11) = (  -0.0033052   0.1474979   0.1675216), wk =   0.0039062
        k(   12) = (  -0.0072090   0.1465695   0.2493073), wk =   0.0039062
        k(   13) = (   0.0201174   0.1530680  -0.3231926), wk =   0.0039062
        k(   14) = (   0.0162136   0.1521396  -0.2414069), wk =   0.0039062
        k(   15) = (   0.0123099   0.1512113  -0.1596212), wk =   0.0039062
        k(   16) = (   0.0084061   0.1502829  -0.0778355), wk =   0.0039062
        k(   17) = (   0.0090047   0.2987091   0.0079004), wk =   0.0039062
        k(   18) = (   0.0051009   0.2977808   0.0896861), wk =   0.0039062
        k(   19) = (   0.0011971   0.2968524   0.1714718), wk =   0.0039062
        k(   20) = (  -0.0027066   0.2959241   0.2532575), wk =   0.0039062
        k(   21) = (   0.0246198   0.3024225  -0.3192423), wk =   0.0039062
        k(   22) = (   0.0207160   0.3014942  -0.2374567), wk =   0.0039062
        k(   23) = (   0.0168122   0.3005658  -0.1556710), wk =   0.0039062
        k(   24) = (   0.0129085   0.2996375  -0.0738853), wk =   0.0039062
        k(   25) = (   0.0135070   0.4480637   0.0118506), wk =   0.0039062
        k(   26) = (   0.0096033   0.4471354   0.0936363), wk =   0.0039062
        k(   27) = (   0.0056995   0.4462070   0.1754220), wk =   0.0039062
        k(   28) = (   0.0017957   0.4452786   0.2572077), wk =   0.0039062
        k(   29) = (   0.0291221   0.4517771  -0.3152921), wk =   0.0039062
        k(   30) = (   0.0252183   0.4508488  -0.2335065), wk =   0.0039062
        k(   31) = (   0.0213146   0.4499204  -0.1517208), wk =   0.0039062
        k(   32) = (   0.0174108   0.4489921  -0.0699351), wk =   0.0039062
        k(   33) = (  -0.0180094  -0.5974183  -0.0158008), wk =   0.0039062
        k(   34) = (  -0.0219131  -0.5983466   0.0659849), wk =   0.0039062
        k(   35) = (  -0.0258169  -0.5992750   0.1477706), wk =   0.0039062
        k(   36) = (  -0.0297207  -0.6002033   0.2295562), wk =   0.0039062
        k(   37) = (  -0.0023943  -0.5937049  -0.3429436), wk =   0.0039062
        k(   38) = (  -0.0062981  -0.5946332  -0.2611579), wk =   0.0039062
        k(   39) = (  -0.0102018  -0.5955616  -0.1793722), wk =   0.0039062
        k(   40) = (  -0.0141056  -0.5964899  -0.0975865), wk =   0.0039062
        k(   41) = (  -0.0135070  -0.4480637  -0.0118506), wk =   0.0039062
        k(   42) = (  -0.0174108  -0.4489921   0.0699351), wk =   0.0039062
        k(   43) = (  -0.0213146  -0.4499204   0.1517208), wk =   0.0039062
        k(   44) = (  -0.0252183  -0.4508488   0.2335065), wk =   0.0039062
        k(   45) = (   0.0021080  -0.4443503  -0.3389934), wk =   0.0039062
        k(   46) = (  -0.0017957  -0.4452786  -0.2572077), wk =   0.0039062
        k(   47) = (  -0.0056995  -0.4462070  -0.1754220), wk =   0.0039062
        k(   48) = (  -0.0096033  -0.4471354  -0.0936363), wk =   0.0039062
        k(   49) = (  -0.0090047  -0.2987091  -0.0079004), wk =   0.0039062
        k(   50) = (  -0.0129085  -0.2996375   0.0738853), wk =   0.0039062
        k(   51) = (  -0.0168122  -0.3005658   0.1556710), wk =   0.0039062
        k(   52) = (  -0.0207160  -0.3014942   0.2374567), wk =   0.0039062
        k(   53) = (   0.0066104  -0.2949957  -0.3350432), wk =   0.0039062
        k(   54) = (   0.0027066  -0.2959241  -0.2532575), wk =   0.0039062
        k(   55) = (  -0.0011971  -0.2968524  -0.1714718), wk =   0.0039062
        k(   56) = (  -0.0051009  -0.2977808  -0.0896861), wk =   0.0039062
        k(   57) = (  -0.0045023  -0.1493546  -0.0039502), wk =   0.0039062
        k(   58) = (  -0.0084061  -0.1502829   0.0778355), wk =   0.0039062
        k(   59) = (  -0.0123099  -0.1512113   0.1596212), wk =   0.0039062
        k(   60) = (  -0.0162136  -0.1521396   0.2414069), wk =   0.0039062
[...]
        k(  498) = (  -0.1398618  -0.3667914   0.0663521), wk =   0.0039062
        k(  499) = (  -0.1437656  -0.3677198   0.1481378), wk =   0.0039062
        k(  500) = (  -0.1476694  -0.3686481   0.2299235), wk =   0.0039062
        k(  501) = (  -0.1203430  -0.3621496  -0.3425763), wk =   0.0039062
        k(  502) = (  -0.1242467  -0.3630780  -0.2607906), wk =   0.0039062
        k(  503) = (  -0.1281505  -0.3640063  -0.1790049), wk =   0.0039062
        k(  504) = (  -0.1320543  -0.3649347  -0.0972193), wk =   0.0039062
        k(  505) = (  -0.1314557  -0.2165085  -0.0114834), wk =   0.0039062
        k(  506) = (  -0.1353595  -0.2174368   0.0703023), wk =   0.0039062
        k(  507) = (  -0.1392632  -0.2183652   0.1520880), wk =   0.0039062
        k(  508) = (  -0.1431670  -0.2192935   0.2338737), wk =   0.0039062
        k(  509) = (  -0.1158406  -0.2127951  -0.3386261), wk =   0.0039062
        k(  510) = (  -0.1197444  -0.2137234  -0.2568404), wk =   0.0039062
        k(  511) = (  -0.1236482  -0.2146518  -0.1750547), wk =   0.0039062
        k(  512) = (  -0.1275519  -0.2155801  -0.0932690), wk =   0.0039062

                       cryst. coord.
        k(    1) = (   0.0000000   0.0000000   0.0000000), wk =   0.0039062
        k(    2) = (  -0.0000000   0.0000000   0.1250000), wk =   0.0039062
        k(    3) = (  -0.0000000   0.0000000   0.2500000), wk =   0.0039062
        k(    4) = (   0.0000000   0.0000000   0.3750000), wk =   0.0039062
        k(    5) = (   0.0000000   0.0000000  -0.5000000), wk =   0.0039062
        k(    6) = (   0.0000000  -0.0000000  -0.3750000), wk =   0.0039062
        k(    7) = (   0.0000000   0.0000000  -0.2500000), wk =   0.0039062
        k(    8) = (   0.0000000   0.0000000  -0.1250000), wk =   0.0039062
        k(    9) = (  -0.0000000   0.1250000  -0.0000000), wk =   0.0039062
        k(   10) = (  -0.0000000   0.1250000   0.1250000), wk =   0.0039062
        k(   11) = (  -0.0000000   0.1250000   0.2500000), wk =   0.0039062
        k(   12) = (  -0.0000000   0.1250000   0.3750000), wk =   0.0039062
        k(   13) = (   0.0000000   0.1250000  -0.5000000), wk =   0.0039062
        k(   14) = (  -0.0000000   0.1250000  -0.3750000), wk =   0.0039062
        k(   15) = (  -0.0000000   0.1250000  -0.2500000), wk =   0.0039062
        k(   16) = (  -0.0000000   0.1250000  -0.1250000), wk =   0.0039062
        k(   17) = (  -0.0000000   0.2500000  -0.0000000), wk =   0.0039062
        k(   18) = (  -0.0000000   0.2500000   0.1250000), wk =   0.0039062
        k(   19) = (  -0.0000000   0.2500000   0.2500000), wk =   0.0039062
        k(   20) = (  -0.0000000   0.2500000   0.3750000), wk =   0.0039062
        k(   21) = (  -0.0000000   0.2500000  -0.5000000), wk =   0.0039062
        k(   22) = (   0.0000000   0.2500000  -0.3750000), wk =   0.0039062
        k(   23) = (  -0.0000000   0.2500000  -0.2500000), wk =   0.0039062
        k(   24) = (  -0.0000000   0.2500000  -0.1250000), wk =   0.0039062
        k(   25) = (  -0.0000000   0.3750000   0.0000000), wk =   0.0039062
        k(   26) = (  -0.0000000   0.3750000   0.1250000), wk =   0.0039062
        k(   27) = (  -0.0000000   0.3750000   0.2500000), wk =   0.0039062
        k(   28) = (  -0.0000000   0.3750000   0.3750000), wk =   0.0039062
        k(   29) = (  -0.0000000   0.3750000  -0.5000000), wk =   0.0039062
        k(   30) = (  -0.0000000   0.3750000  -0.3750000), wk =   0.0039062
        k(   31) = (  -0.0000000   0.3750000  -0.2500000), wk =   0.0039062
        k(   32) = (  -0.0000000   0.3750000  -0.1250000), wk =   0.0039062
        k(   33) = (   0.0000000  -0.5000000   0.0000000), wk =   0.0039062
        k(   34) = (   0.0000000  -0.5000000   0.1250000), wk =   0.0039062
        k(   35) = (   0.0000000  -0.5000000   0.2500000), wk =   0.0039062
        k(   36) = (   0.0000000  -0.5000000   0.3750000), wk =   0.0039062
        k(   37) = (   0.0000000  -0.5000000  -0.5000000), wk =   0.0039062
        k(   38) = (   0.0000000  -0.5000000  -0.3750000), wk =   0.0039062
        k(   39) = (   0.0000000  -0.5000000  -0.2500000), wk =   0.0039062
        k(   40) = (   0.0000000  -0.5000000  -0.1250000), wk =   0.0039062
        k(   41) = (   0.0000000  -0.3750000   0.0000000), wk =   0.0039062
        k(   42) = (   0.0000000  -0.3750000   0.1250000), wk =   0.0039062
        k(   43) = (   0.0000000  -0.3750000   0.2500000), wk =   0.0039062
        k(   44) = (   0.0000000  -0.3750000   0.3750000), wk =   0.0039062
        k(   45) = (   0.0000000  -0.3750000  -0.5000000), wk =   0.0039062
        k(   46) = (   0.0000000  -0.3750000  -0.3750000), wk =   0.0039062
        k(   47) = (   0.0000000  -0.3750000  -0.2500000), wk =   0.0039062
        k(   48) = (   0.0000000  -0.3750000  -0.1250000), wk =   0.0039062
        k(   49) = (   0.0000000  -0.2500000   0.0000000), wk =   0.0039062
        k(   50) = (   0.0000000  -0.2500000   0.1250000), wk =   0.0039062
        k(   51) = (   0.0000000  -0.2500000   0.2500000), wk =   0.0039062
        k(   52) = (   0.0000000  -0.2500000   0.3750000), wk =   0.0039062
        k(   53) = (   0.0000000  -0.2500000  -0.5000000), wk =   0.0039062
        k(   54) = (   0.0000000  -0.2500000  -0.3750000), wk =   0.0039062
        k(   55) = (   0.0000000  -0.2500000  -0.2500000), wk =   0.0039062
        k(   56) = (   0.0000000  -0.2500000  -0.1250000), wk =   0.0039062
        k(   57) = (   0.0000000  -0.1250000   0.0000000), wk =   0.0039062
        k(   58) = (   0.0000000  -0.1250000   0.1250000), wk =   0.0039062
        k(   59) = (   0.0000000  -0.1250000   0.2500000), wk =   0.0039062
        k(   60) = (   0.0000000  -0.1250000   0.3750000), wk =   0.0039062
[...]
        k(  498) = (  -0.1250000  -0.2500000   0.1250000), wk =   0.0039062
        k(  499) = (  -0.1250000  -0.2500000   0.2500000), wk =   0.0039062
        k(  500) = (  -0.1250000  -0.2500000   0.3750000), wk =   0.0039062
        k(  501) = (  -0.1250000  -0.2500000  -0.5000000), wk =   0.0039062
        k(  502) = (  -0.1250000  -0.2500000  -0.3750000), wk =   0.0039062
        k(  503) = (  -0.1250000  -0.2500000  -0.2500000), wk =   0.0039062
        k(  504) = (  -0.1250000  -0.2500000  -0.1250000), wk =   0.0039062
        k(  505) = (  -0.1250000  -0.1250000   0.0000000), wk =   0.0039062
        k(  506) = (  -0.1250000  -0.1250000   0.1250000), wk =   0.0039062
        k(  507) = (  -0.1250000  -0.1250000   0.2500000), wk =   0.0039062
        k(  508) = (  -0.1250000  -0.1250000   0.3750000), wk =   0.0039062
        k(  509) = (  -0.1250000  -0.1250000  -0.5000000), wk =   0.0039062
        k(  510) = (  -0.1250000  -0.1250000  -0.3750000), wk =   0.0039062
        k(  511) = (  -0.1250000  -0.1250000  -0.2500000), wk =   0.0039062
        k(  512) = (  -0.1250000  -0.1250000  -0.1250000), wk =   0.0039062

     Initial potential from superposition of free atoms

     starting charge       3.9997, renormalised to       4.0000
     Starting wfcs are    8 randomized atomic wfcs

     Self-consistent Calculation

     iteration #  1     ecut=    40.00 Ry     beta= 0.10
     Davidson diagonalization with overlap

     ethr =  1.00E-02,  avg # of iterations =  3.2

     Threshold (ethr) on eigenvalues was too large:
     Diagonalizing with lowered threshold

     Davidson diagonalization with overlap

     c_bands:  1 eigenvalues not converged
     ethr =  1.00E-04,  avg # of iterations =  6.0

     End of self-consistent calculation

          k = 0.0000 0.0000 0.0000 (   441 PWs)   bands (ev):

    -3.1911   3.8691   9.7720  23.9826

     occupation numbers
     1.0000   1.0000   0.0000   0.0000

          k =-0.0039-0.0009 0.0818 (   442 PWs)   bands (ev):

[...]

          k = 0.3803 0.0530-0.0631 (   440 PWs)   bands (ev):

[...]

          k =-0.1276-0.2156-0.0933 (   442 PWs)   bands (ev):

    -1.6972   4.6680  11.3547  17.4379

     occupation numbers
     1.0000   1.0000   0.0000   0.0000

     the Fermi energy is     8.6274 ev

!    total energy              =      -5.35693748 Ry
     estimated scf accuracy    <       0.00553173 Ry
     smearing contrib. (-TS)   =      -0.00001778 Ry
     internal energy E=F+TS    =      -5.35691970 Ry

     The total energy is F=E-TS. E is the sum of the following terms:
     one-electron contribution =       4.12746548 Ry
     hartree contribution      =       0.01427134 Ry
     xc contribution           =      -3.32109616 Ry
     ewald contribution        =      -6.17756035 Ry

     convergence has been achieved in   1 iterations

     Forces acting on atoms (cartesian axes, Ry/au):

     atom    1 type  1   force =    -0.02924782   -0.00454481    0.01073789
     atom    2 type  1   force =     0.02924782    0.00454481   -0.01073789
     The non-local contrib.  to forces
     atom    1 type  1   force =    -0.04766336   -0.01372507    0.04468198
     atom    2 type  1   force =     0.04769654    0.01373765   -0.04470612
     The ionic contribution  to forces
     atom    1 type  1   force =    -0.02896072   -0.00738474    0.10515901
     atom    2 type  1   force =     0.02896072    0.00738474   -0.10515901
     The local contribution  to forces
     atom    1 type  1   force =     0.04667266    0.01633403   -0.15846649
     atom    2 type  1   force =    -0.04668254   -0.01633803    0.15847492
     The core correction contribution to forces
     atom    1 type  1   force =     0.00232210    0.00071821   -0.00320978
     atom    2 type  1   force =    -0.00227714   -0.00070448    0.00316264
     The Hubbard contrib.    to forces
     atom    1 type  1   force =     0.00000000    0.00000000    0.00000000
     atom    2 type  1   force =     0.00000000    0.00000000    0.00000000
     The SCF correction term to forces
     atom    1 type  1   force =    -0.00158496   -0.00047386    0.02254025
     atom    2 type  1   force =     0.00158379    0.00047831   -0.02254324

     Total force =     0.044528     Total SCF correction =     0.031965
     SCF correction compared to forces is large: reduce conv_thr to get better values

     Computing stress (Cartesian axis) and pressure

          total   stress  (Ry/bohr**3)                   (kbar)     P=       70.26
  -0.00033218  -0.00054390  -0.00030974          -48.86      -80.01      -45.57
  -0.00054390   0.00074396   0.00010590          -80.01      109.44       15.58
  -0.00030974   0.00010590   0.00102098          -45.57       15.58      150.19

     kinetic stress (kbar)   2837.30    -70.84    -31.90
                              -70.84   2984.38      8.38
                              -31.90      8.38   2979.85

     local   stress (kbar)    433.35    184.65     34.17
                              184.65    193.70      7.87
                               34.17      7.87    109.25

     nonloc. stress (kbar)    920.62    -29.13     -6.03
                              -29.13    954.29     -1.52
                               -6.03     -1.52    983.61

     hartree stress (kbar)      9.05     -3.77      0.71
                               -3.77     13.85     -0.14
                                0.71     -0.14     -2.66

     exc-cor stress (kbar)    111.09     -2.81     -0.61
                               -2.81    114.97     -0.04
                               -0.61     -0.04    116.76

     corecor stress (kbar)  -1253.11      8.23      2.00
                                8.23  -1264.53      0.11
                                2.00      0.11  -1269.91

     ewald   stress (kbar)  -3107.17   -166.34    -43.90
                             -166.34  -2887.22      0.91
                              -43.90      0.91  -2766.71

     hubbard stress (kbar)      0.00      0.00      0.00
                                0.00      0.00      0.00
                                0.00      0.00      0.00

     DFT-D   stress (kbar)      0.00      0.00      0.00
                                0.00      0.00      0.00
                                0.00      0.00      0.00

     XDM     stress (kbar)      0.00      0.00      0.00
                                0.00      0.00      0.00
                                0.00      0.00      0.00

     dft-nl  stress (kbar)      0.00      0.00      0.00
                                0.00      0.00      0.00
                                0.00      0.00      0.00

     TS-vdW  stress (kbar)      0.00      0.00      0.00
                                0.00      0.00      0.00
                                0.00      0.00      0.00

     MDB     stress (kbar)      0.00      0.00      0.00
                                0.00      0.00      0.00
                                0.00      0.00      0.00

     3D-RISM stress (kbar)      0.00      0.00      0.00
                                0.00      0.00      0.00
                                0.00      0.00      0.00

     Writing all to output data dir ../tmp/Be/Be.save/ :
     XML data file, charge density, pseudopotentials, collected wavefunctions

     General routines

   This run was terminated on:  18:50:15   6May2024

   JOB DONE.