     Program PWSCF v.7.3.1 starts on  6May2024 at 18:50:41

     Reading input from Be6.pw.in

     Current dimensions of program PWSCF are:
     Max number of different atomic species (ntypx) = 10
     Max number of k-points (npk) =  40000
     Max angular momentum in pseudopotentials (lmaxx) =  4

     Using Slab Decomposition

     bravais-lattice index     =            0
     lattice parameter (alat)  =       4.4188  a.u.
     unit-cell volume          =     104.9404 (a.u.)^3
     number of atoms/cell      =            2
     number of atomic types    =            1
     number of electrons       =         4.00
     number of Kohn-Sham states=            4
     kinetic-energy cutoff     =      40.0000  Ry
     charge density cutoff     =     160.0000  Ry
     scf convergence threshold =      2.0E-02
     mixing beta               =       0.1000
     number of iterations used =            8  plain     mixing
     Exchange-correlation= PBE
                           (   1   4   3   4   0   0   0)

     celldm(1)=   4.418779  celldm(2)=   0.000000  celldm(3)=   0.000000
     celldm(4)=   0.000000  celldm(5)=   0.000000  celldm(6)=   0.000000

     crystal axes: (cart. coord. in units of alat)
               a(1) = (   0.997341   0.046300   0.056278 )
               a(2) = (  -0.545849   0.760463  -0.038504 )
               a(3) = (  -0.031413   0.037718   1.549795 )

     reciprocal axes: (cart. coord. in units 2 pi/alat)
               b(1) = (  0.970178  0.696516  0.002713 )
               b(2) = ( -0.057250  1.272268 -0.032124 )
               b(3) = ( -0.036653  0.006316  0.644350 )

     PseudoPot. # 1 for Be read from file:
     ../pseudo/Be.pbe-n-rrkjus_psl.1.0.0.UPF
     MD5 check sum: 734a25375992c446e1da9bf329ae4716
     Pseudo is Ultrasoft + core correction, Zval =  2.0
     Generated using &quot;atomic&quot; code by A. Dal Corso  v.6.6
     Using radial grid of 1041 points,  4 beta functions with:
                l(1) =   0
                l(2) =   0
                l(3) =   1
                l(4) =   1
     Q(r) pseudized with 0 coefficients

     atomic species   valence    mass     pseudopotential
     Be                2.00     9.01218     Be( 1.00)

     No symmetry found

                                    s                        frac. trans.

      isym =  1     identity

 cryst.   s( 1) = (     1          0          0      )
                  (     0          1          0      )
                  (     0          0          1      )

 cart.    s( 1) = (  1.0000000 -0.0000000  0.0000000 )
                  (  0.0000000  1.0000000  0.0000000 )
                  (  0.0000000  0.0000000  1.0000000 )

   Cartesian axes

     site n.     atom                  positions (alat units)
         1        Be     tau(   1) = (   0.7496344   0.1372798   1.1451282  )
         2        Be     tau(   2) = (  -0.2664181   0.6996754   0.3815588  )

   Crystallographic axes

     site n.     atom                  positions (cryst. coord.)
         1        Be     tau(   1) = (  0.8260035  0.0949534  0.7112539  )
         2        Be     tau(   2) = (  0.2298973  0.8931695  0.2600414  )

     number of k points=   512  Fermi-Dirac smearing, width (Ry)=  0.0019
                       cart. coord. in units 2pi/alat
        k(    1) = (   0.0000000   0.0000000   0.0000000), wk =   0.0039062
        k(    2) = (  -0.0045816   0.0007895   0.0805437), wk =   0.0039062
        k(    3) = (  -0.0091632   0.0015790   0.1610875), wk =   0.0039062
        k(    4) = (  -0.0137448   0.0023684   0.2416312), wk =   0.0039062
        k(    5) = (   0.0183264  -0.0031579  -0.3221749), wk =   0.0039062
        k(    6) = (   0.0137448  -0.0023684  -0.2416312), wk =   0.0039062
        k(    7) = (   0.0091632  -0.0015790  -0.1610875), wk =   0.0039062
        k(    8) = (   0.0045816  -0.0007895  -0.0805437), wk =   0.0039062
        k(    9) = (  -0.0071563   0.1590335  -0.0040155), wk =   0.0039062
        k(   10) = (  -0.0117379   0.1598229   0.0765282), wk =   0.0039062
        k(   11) = (  -0.0163195   0.1606124   0.1570719), wk =   0.0039062
        k(   12) = (  -0.0209011   0.1614019   0.2376156), wk =   0.0039062
        k(   13) = (   0.0111701   0.1558755  -0.3261904), wk =   0.0039062
        k(   14) = (   0.0065885   0.1566650  -0.2456467), wk =   0.0039062
        k(   15) = (   0.0020069   0.1574545  -0.1651030), wk =   0.0039062
        k(   16) = (  -0.0025747   0.1582440  -0.0845593), wk =   0.0039062
        k(   17) = (  -0.0143126   0.3180669  -0.0080311), wk =   0.0039062
        k(   18) = (  -0.0188942   0.3188564   0.0725127), wk =   0.0039062
        k(   19) = (  -0.0234758   0.3196459   0.1530564), wk =   0.0039062
        k(   20) = (  -0.0280574   0.3204354   0.2336001), wk =   0.0039062
        k(   21) = (   0.0040138   0.3149090  -0.3302060), wk =   0.0039062
        k(   22) = (  -0.0005678   0.3156985  -0.2496623), wk =   0.0039062
        k(   23) = (  -0.0051494   0.3164879  -0.1691185), wk =   0.0039062
        k(   24) = (  -0.0097310   0.3172774  -0.0885748), wk =   0.0039062
        k(   25) = (  -0.0214689   0.4771004  -0.0120466), wk =   0.0039062
        k(   26) = (  -0.0260505   0.4778898   0.0684971), wk =   0.0039062
        k(   27) = (  -0.0306321   0.4786793   0.1490408), wk =   0.0039062
        k(   28) = (  -0.0352137   0.4794688   0.2295846), wk =   0.0039062
        k(   29) = (  -0.0031425   0.4739424  -0.3342215), wk =   0.0039062
        k(   30) = (  -0.0077241   0.4747319  -0.2536778), wk =   0.0039062
        k(   31) = (  -0.0123057   0.4755214  -0.1731341), wk =   0.0039062
        k(   32) = (  -0.0168873   0.4763109  -0.0925903), wk =   0.0039062
        k(   33) = (   0.0286252  -0.6361338   0.0160621), wk =   0.0039062
        k(   34) = (   0.0240436  -0.6353443   0.0966059), wk =   0.0039062
        k(   35) = (   0.0194620  -0.6345548   0.1771496), wk =   0.0039062
        k(   36) = (   0.0148804  -0.6337654   0.2576933), wk =   0.0039062
        k(   37) = (   0.0469516  -0.6392917  -0.3061128), wk =   0.0039062
        k(   38) = (   0.0423700  -0.6385023  -0.2255690), wk =   0.0039062
        k(   39) = (   0.0377884  -0.6377128  -0.1450253), wk =   0.0039062
        k(   40) = (   0.0332068  -0.6369233  -0.0644816), wk =   0.0039062
        k(   41) = (   0.0214689  -0.4771004   0.0120466), wk =   0.0039062
        k(   42) = (   0.0168873  -0.4763109   0.0925903), wk =   0.0039062
        k(   43) = (   0.0123057  -0.4755214   0.1731341), wk =   0.0039062
        k(   44) = (   0.0077241  -0.4747319   0.2536778), wk =   0.0039062
        k(   45) = (   0.0397953  -0.4802583  -0.3101283), wk =   0.0039062
        k(   46) = (   0.0352137  -0.4794688  -0.2295846), wk =   0.0039062
        k(   47) = (   0.0306321  -0.4786793  -0.1490408), wk =   0.0039062
        k(   48) = (   0.0260505  -0.4778898  -0.0684971), wk =   0.0039062
        k(   49) = (   0.0143126  -0.3180669   0.0080311), wk =   0.0039062
        k(   50) = (   0.0097310  -0.3172774   0.0885748), wk =   0.0039062
        k(   51) = (   0.0051494  -0.3164879   0.1691185), wk =   0.0039062
        k(   52) = (   0.0005678  -0.3156985   0.2496623), wk =   0.0039062
        k(   53) = (   0.0326390  -0.3212248  -0.3141438), wk =   0.0039062
        k(   54) = (   0.0280574  -0.3204354  -0.2336001), wk =   0.0039062
        k(   55) = (   0.0234758  -0.3196459  -0.1530564), wk =   0.0039062
        k(   56) = (   0.0188942  -0.3188564  -0.0725127), wk =   0.0039062
        k(   57) = (   0.0071563  -0.1590335   0.0040155), wk =   0.0039062
        k(   58) = (   0.0025747  -0.1582440   0.0845593), wk =   0.0039062
        k(   59) = (  -0.0020069  -0.1574545   0.1651030), wk =   0.0039062
        k(   60) = (  -0.0065885  -0.1566650   0.2456467), wk =   0.0039062
[...]
        k(  498) = (  -0.1115413  -0.4043419   0.0882357), wk =   0.0039062
        k(  499) = (  -0.1161229  -0.4035525   0.1687794), wk =   0.0039062
        k(  500) = (  -0.1207045  -0.4027630   0.2493231), wk =   0.0039062
        k(  501) = (  -0.0886333  -0.4082894  -0.3144830), wk =   0.0039062
        k(  502) = (  -0.0932149  -0.4074999  -0.2339392), wk =   0.0039062
        k(  503) = (  -0.0977965  -0.4067104  -0.1533955), wk =   0.0039062
        k(  504) = (  -0.1023781  -0.4059209  -0.0728518), wk =   0.0039062
        k(  505) = (  -0.1141160  -0.2460980   0.0036764), wk =   0.0039062
        k(  506) = (  -0.1186976  -0.2453085   0.0842201), wk =   0.0039062
        k(  507) = (  -0.1232792  -0.2445190   0.1647639), wk =   0.0039062
        k(  508) = (  -0.1278608  -0.2437295   0.2453076), wk =   0.0039062
        k(  509) = (  -0.0957896  -0.2492559  -0.3184985), wk =   0.0039062
        k(  510) = (  -0.1003712  -0.2484664  -0.2379548), wk =   0.0039062
        k(  511) = (  -0.1049528  -0.2476769  -0.1574111), wk =   0.0039062
        k(  512) = (  -0.1095344  -0.2468875  -0.0768673), wk =   0.0039062

                       cryst. coord.
        k(    1) = (   0.0000000   0.0000000   0.0000000), wk =   0.0039062
        k(    2) = (   0.0000000  -0.0000000   0.1250000), wk =   0.0039062
        k(    3) = (   0.0000000  -0.0000000   0.2500000), wk =   0.0039062
        k(    4) = (   0.0000000   0.0000000   0.3750000), wk =   0.0039062
        k(    5) = (   0.0000000   0.0000000  -0.5000000), wk =   0.0039062
        k(    6) = (  -0.0000000   0.0000000  -0.3750000), wk =   0.0039062
        k(    7) = (   0.0000000   0.0000000  -0.2500000), wk =   0.0039062
        k(    8) = (   0.0000000   0.0000000  -0.1250000), wk =   0.0039062
        k(    9) = (   0.0000000   0.1250000   0.0000000), wk =   0.0039062
        k(   10) = (   0.0000000   0.1250000   0.1250000), wk =   0.0039062
        k(   11) = (   0.0000000   0.1250000   0.2500000), wk =   0.0039062
        k(   12) = (   0.0000000   0.1250000   0.3750000), wk =   0.0039062
        k(   13) = (  -0.0000000   0.1250000  -0.5000000), wk =   0.0039062
        k(   14) = (  -0.0000000   0.1250000  -0.3750000), wk =   0.0039062
        k(   15) = (   0.0000000   0.1250000  -0.2500000), wk =   0.0039062
        k(   16) = (   0.0000000   0.1250000  -0.1250000), wk =   0.0039062
        k(   17) = (   0.0000000   0.2500000   0.0000000), wk =   0.0039062
        k(   18) = (   0.0000000   0.2500000   0.1250000), wk =   0.0039062
        k(   19) = (   0.0000000   0.2500000   0.2500000), wk =   0.0039062
        k(   20) = (   0.0000000   0.2500000   0.3750000), wk =   0.0039062
        k(   21) = (   0.0000000   0.2500000  -0.5000000), wk =   0.0039062
        k(   22) = (   0.0000000   0.2500000  -0.3750000), wk =   0.0039062
        k(   23) = (   0.0000000   0.2500000  -0.2500000), wk =   0.0039062
        k(   24) = (   0.0000000   0.2500000  -0.1250000), wk =   0.0039062
        k(   25) = (  -0.0000000   0.3750000   0.0000000), wk =   0.0039062
        k(   26) = (   0.0000000   0.3750000   0.1250000), wk =   0.0039062
        k(   27) = (   0.0000000   0.3750000   0.2500000), wk =   0.0039062
        k(   28) = (   0.0000000   0.3750000   0.3750000), wk =   0.0039062
        k(   29) = (   0.0000000   0.3750000  -0.5000000), wk =   0.0039062
        k(   30) = (   0.0000000   0.3750000  -0.3750000), wk =   0.0039062
        k(   31) = (  -0.0000000   0.3750000  -0.2500000), wk =   0.0039062
        k(   32) = (   0.0000000   0.3750000  -0.1250000), wk =   0.0039062
        k(   33) = (  -0.0000000  -0.5000000   0.0000000), wk =   0.0039062
        k(   34) = (  -0.0000000  -0.5000000   0.1250000), wk =   0.0039062
        k(   35) = (  -0.0000000  -0.5000000   0.2500000), wk =   0.0039062
        k(   36) = (   0.0000000  -0.5000000   0.3750000), wk =   0.0039062
        k(   37) = (   0.0000000  -0.5000000  -0.5000000), wk =   0.0039062
        k(   38) = (  -0.0000000  -0.5000000  -0.3750000), wk =   0.0039062
        k(   39) = (  -0.0000000  -0.5000000  -0.2500000), wk =   0.0039062
        k(   40) = (  -0.0000000  -0.5000000  -0.1250000), wk =   0.0039062
        k(   41) = (   0.0000000  -0.3750000  -0.0000000), wk =   0.0039062
        k(   42) = (  -0.0000000  -0.3750000   0.1250000), wk =   0.0039062
        k(   43) = (   0.0000000  -0.3750000   0.2500000), wk =   0.0039062
        k(   44) = (   0.0000000  -0.3750000   0.3750000), wk =   0.0039062
        k(   45) = (  -0.0000000  -0.3750000  -0.5000000), wk =   0.0039062
        k(   46) = (  -0.0000000  -0.3750000  -0.3750000), wk =   0.0039062
        k(   47) = (  -0.0000000  -0.3750000  -0.2500000), wk =   0.0039062
        k(   48) = (  -0.0000000  -0.3750000  -0.1250000), wk =   0.0039062
        k(   49) = (  -0.0000000  -0.2500000   0.0000000), wk =   0.0039062
        k(   50) = (  -0.0000000  -0.2500000   0.1250000), wk =   0.0039062
        k(   51) = (   0.0000000  -0.2500000   0.2500000), wk =   0.0039062
        k(   52) = (  -0.0000000  -0.2500000   0.3750000), wk =   0.0039062
        k(   53) = (  -0.0000000  -0.2500000  -0.5000000), wk =   0.0039062
        k(   54) = (  -0.0000000  -0.2500000  -0.3750000), wk =   0.0039062
        k(   55) = (   0.0000000  -0.2500000  -0.2500000), wk =   0.0039062
        k(   56) = (  -0.0000000  -0.2500000  -0.1250000), wk =   0.0039062
        k(   57) = (  -0.0000000  -0.1250000   0.0000000), wk =   0.0039062
        k(   58) = (   0.0000000  -0.1250000   0.1250000), wk =   0.0039062
        k(   59) = (   0.0000000  -0.1250000   0.2500000), wk =   0.0039062
        k(   60) = (   0.0000000  -0.1250000   0.3750000), wk =   0.0039062
[...]
        k(  498) = (  -0.1250000  -0.2500000   0.1250000), wk =   0.0039062
        k(  499) = (  -0.1250000  -0.2500000   0.2500000), wk =   0.0039062
        k(  500) = (  -0.1250000  -0.2500000   0.3750000), wk =   0.0039062
        k(  501) = (  -0.1250000  -0.2500000  -0.5000000), wk =   0.0039062
        k(  502) = (  -0.1250000  -0.2500000  -0.3750000), wk =   0.0039062
        k(  503) = (  -0.1250000  -0.2500000  -0.2500000), wk =   0.0039062
        k(  504) = (  -0.1250000  -0.2500000  -0.1250000), wk =   0.0039062
        k(  505) = (  -0.1250000  -0.1250000  -0.0000000), wk =   0.0039062
        k(  506) = (  -0.1250000  -0.1250000   0.1250000), wk =   0.0039062
        k(  507) = (  -0.1250000  -0.1250000   0.2500000), wk =   0.0039062
        k(  508) = (  -0.1250000  -0.1250000   0.3750000), wk =   0.0039062
        k(  509) = (  -0.1250000  -0.1250000  -0.5000000), wk =   0.0039062
        k(  510) = (  -0.1250000  -0.1250000  -0.3750000), wk =   0.0039062
        k(  511) = (  -0.1250000  -0.1250000  -0.2500000), wk =   0.0039062
        k(  512) = (  -0.1250000  -0.1250000  -0.1250000), wk =   0.0039062

     Initial potential from superposition of free atoms

     starting charge       3.9997, renormalised to       4.0000
     Starting wfcs are    8 randomized atomic wfcs

     Self-consistent Calculation

     iteration #  1     ecut=    40.00 Ry     beta= 0.10
     Davidson diagonalization with overlap

     ethr =  1.00E-02,  avg # of iterations =  3.2

     Threshold (ethr) on eigenvalues was too large:
     Diagonalizing with lowered threshold

     Davidson diagonalization with overlap

     ethr =  3.11E-04,  avg # of iterations =  4.5

     End of self-consistent calculation

          k = 0.0000 0.0000 0.0000 (   445 PWs)   bands (ev):

    -3.3734   3.5641   8.6788  23.0063

     occupation numbers
     1.0000   1.0000   0.0000   0.0000

          k =-0.0046 0.0008 0.0805 (   446 PWs)   bands (ev):

[...]

          k = 0.3756 0.1014-0.0755 (   442 PWs)   bands (ev):

[...]

          k =-0.1095-0.2469-0.0769 (   447 PWs)   bands (ev):

    -1.8068   4.7136  10.2025  17.8746

     occupation numbers
     1.0000   1.0000   0.0000   0.0000

     the Fermi energy is     8.2332 ev

!    total energy              =      -5.34505626 Ry
     estimated scf accuracy    <       0.01749561 Ry
     smearing contrib. (-TS)   =      -0.00004908 Ry
     internal energy E=F+TS    =      -5.34500718 Ry

     The total energy is F=E-TS. E is the sum of the following terms:
     one-electron contribution =       4.03800817 Ry
     hartree contribution      =       0.05947444 Ry
     xc contribution           =      -3.32001198 Ry
     ewald contribution        =      -6.12247782 Ry

     convergence has been achieved in   1 iterations

     Forces acting on atoms (cartesian axes, Ry/au):

     atom    1 type  1   force =    -0.00425675    0.01811328    0.01886533
     atom    2 type  1   force =     0.00425675   -0.01811328   -0.01886533
     The non-local contrib.  to forces
     atom    1 type  1   force =    -0.00811307    0.01329590    0.11310785
     atom    2 type  1   force =     0.00808225   -0.01330992   -0.11302942
     The ionic contribution  to forces
     atom    1 type  1   force =    -0.01661976    0.00208844    0.28624676
     atom    2 type  1   force =     0.01661976   -0.00208844   -0.28624676
     The local contribution  to forces
     atom    1 type  1   force =     0.02374374    0.00239119   -0.43858301
     atom    2 type  1   force =    -0.02372075   -0.00238941    0.43856153
     The core correction contribution to forces
     atom    1 type  1   force =     0.00048834   -0.00024808   -0.00814544
     atom    2 type  1   force =    -0.00044023    0.00021757    0.00814005
     The Hubbard contrib.    to forces
     atom    1 type  1   force =     0.00000000    0.00000000    0.00000000
     atom    2 type  1   force =     0.00000000    0.00000000    0.00000000
     The SCF correction term to forces
     atom    1 type  1   force =    -0.00373802    0.00056490    0.06628121
     atom    2 type  1   force =     0.00373368   -0.00056402   -0.06624867

     Total force =     0.037473     Total SCF correction =     0.093865
     SCF correction compared to forces is large: reduce conv_thr to get better values

     Computing stress (Cartesian axis) and pressure

          total   stress  (Ry/bohr**3)                   (kbar)     P=       68.53
   0.00002406   0.00013830  -0.00046733            3.54       20.34      -68.75
   0.00013830   0.00115061   0.00016409           20.34      169.26       24.14
  -0.00046733   0.00016409   0.00022299          -68.75       24.14       32.80

     kinetic stress (kbar)   2861.66     13.41    -39.45
                               13.41   3015.22     21.01
                              -39.45     21.01   2854.94

     local   stress (kbar)     63.03    -10.09     -6.86
                              -10.09     93.05     10.02
                               -6.86     10.02    440.95

     nonloc. stress (kbar)    932.41      1.61     -2.57
                                1.61    906.41     -1.34
                               -2.57     -1.34    940.84

     hartree stress (kbar)     78.79     -0.01      9.14
                               -0.01     79.60     -1.53
                                9.14     -1.53    -75.02

     exc-cor stress (kbar)    113.43      0.20     -0.38
                                0.20    113.36      0.04
                               -0.38      0.04    112.84

     corecor stress (kbar)  -1247.91     -0.64      1.27
                               -0.64  -1248.03     -0.18
                                1.27     -0.18  -1247.51

     ewald   stress (kbar)  -2797.87     15.87    -29.91
                               15.87  -2790.34     -3.88
                              -29.91     -3.88  -2994.25

     hubbard stress (kbar)      0.00      0.00      0.00
                                0.00      0.00      0.00
                                0.00      0.00      0.00

     DFT-D   stress (kbar)      0.00      0.00      0.00
                                0.00      0.00      0.00
                                0.00      0.00      0.00

     XDM     stress (kbar)      0.00      0.00      0.00
                                0.00      0.00      0.00
                                0.00      0.00      0.00

     dft-nl  stress (kbar)      0.00      0.00      0.00
                                0.00      0.00      0.00
                                0.00      0.00      0.00

     TS-vdW  stress (kbar)      0.00      0.00      0.00
                                0.00      0.00      0.00
                                0.00      0.00      0.00

     MDB     stress (kbar)      0.00      0.00      0.00
                                0.00      0.00      0.00
                                0.00      0.00      0.00

     3D-RISM stress (kbar)      0.00      0.00      0.00
                                0.00      0.00      0.00
                                0.00      0.00      0.00

     Writing all to output data dir ../tmp/Be/Be.save/ :
     XML data file, charge density, pseudopotentials, collected wavefunctions

     General routines

   This run was terminated on:  18:50:47   6May2024

   JOB DONE.