     Program PWSCF v.7.3.1 starts on  6May2024 at 18:50:52

     Reading input from Be7.pw.in

     Current dimensions of program PWSCF are:
     Max number of different atomic species (ntypx) = 10
     Max number of k-points (npk) =  40000
     Max angular momentum in pseudopotentials (lmaxx) =  4

     Using Slab Decomposition

     bravais-lattice index     =            0
     lattice parameter (alat)  =       4.2087  a.u.
     unit-cell volume          =     107.1399 (a.u.)^3
     number of atoms/cell      =            2
     number of atomic types    =            1
     number of electrons       =         4.00
     number of Kohn-Sham states=            4
     kinetic-energy cutoff     =      40.0000  Ry
     charge density cutoff     =     160.0000  Ry
     scf convergence threshold =      2.0E-02
     mixing beta               =       0.1000
     number of iterations used =            8  plain     mixing
     Exchange-correlation= PBE
                           (   1   4   3   4   0   0   0)

     celldm(1)=   4.208697  celldm(2)=   0.000000  celldm(3)=   0.000000
     celldm(4)=   0.000000  celldm(5)=   0.000000  celldm(6)=   0.000000

     crystal axes: (cart. coord. in units of alat)
               a(1) = (   0.999041   0.039156   0.019587 )
               a(2) = (  -0.502953   0.846446   0.061740 )
               a(3) = (  -0.076538  -0.075851   1.653318 )

     reciprocal axes: (cart. coord. in units 2 pi/alat)
               b(1) = (  0.977007  0.575308  0.071623 )
               b(2) = ( -0.046078  1.150338  0.050642 )
               b(3) = ( -0.009854 -0.049773  0.602105 )

     PseudoPot. # 1 for Be read from file:
     ../pseudo/Be.pbe-n-rrkjus_psl.1.0.0.UPF
     MD5 check sum: 734a25375992c446e1da9bf329ae4716
     Pseudo is Ultrasoft + core correction, Zval =  2.0
     Generated using &quot;atomic&quot; code by A. Dal Corso  v.6.6
     Using radial grid of 1041 points,  4 beta functions with:
                l(1) =   0
                l(2) =   0
                l(3) =   1
                l(4) =   1
     Q(r) pseudized with 0 coefficients

     atomic species   valence    mass     pseudopotential
     Be                2.00     9.01218     Be( 1.00)

     No symmetry found

                                    s                        frac. trans.

      isym =  1     identity

 cryst.   s( 1) = (     1          0          0      )
                  (     0          1          0      )
                  (     0          0          1      )

 cart.    s( 1) = (  1.0000000  0.0000000  0.0000000 )
                  (  0.0000000  1.0000000  0.0000000 )
                  (  0.0000000  0.0000000  1.0000000 )

   Cartesian axes

     site n.     atom                  positions (alat units)
         1        Be     tau(   1) = (   0.7870532   0.1441323   1.2022885  )
         2        Be     tau(   2) = (  -0.2797167   0.7346004   0.4006047  )

   Crystallographic axes

     site n.     atom                  positions (cryst. coord.)
         1        Be     tau(   1) = (  0.9379890  0.1904214  0.7089741  )
         2        Be     tau(   2) = (  0.1780289  0.8782149  0.2073991  )

     number of k points=   512  Fermi-Dirac smearing, width (Ry)=  0.0019
                       cart. coord. in units 2pi/alat
        k(    1) = (   0.0000000   0.0000000   0.0000000), wk =   0.0039062
        k(    2) = (  -0.0012317  -0.0062216   0.0752631), wk =   0.0039062
        k(    3) = (  -0.0024635  -0.0124432   0.1505262), wk =   0.0039062
        k(    4) = (  -0.0036952  -0.0186649   0.2257893), wk =   0.0039062
        k(    5) = (   0.0049270   0.0248865  -0.3010523), wk =   0.0039062
        k(    6) = (   0.0036952   0.0186649  -0.2257893), wk =   0.0039062
        k(    7) = (   0.0024635   0.0124432  -0.1505262), wk =   0.0039062
        k(    8) = (   0.0012317   0.0062216  -0.0752631), wk =   0.0039062
        k(    9) = (  -0.0057598   0.1437922   0.0063303), wk =   0.0039062
        k(   10) = (  -0.0069915   0.1375706   0.0815934), wk =   0.0039062
        k(   11) = (  -0.0082233   0.1313490   0.1568565), wk =   0.0039062
        k(   12) = (  -0.0094550   0.1251273   0.2321195), wk =   0.0039062
        k(   13) = (  -0.0008328   0.1686787  -0.2947221), wk =   0.0039062
        k(   14) = (  -0.0020646   0.1624571  -0.2194590), wk =   0.0039062
        k(   15) = (  -0.0032963   0.1562354  -0.1441959), wk =   0.0039062
        k(   16) = (  -0.0045280   0.1500138  -0.0689328), wk =   0.0039062
        k(   17) = (  -0.0115196   0.2875844   0.0126606), wk =   0.0039062
        k(   18) = (  -0.0127513   0.2813628   0.0879236), wk =   0.0039062
        k(   19) = (  -0.0139830   0.2751412   0.1631867), wk =   0.0039062
        k(   20) = (  -0.0152148   0.2689195   0.2384498), wk =   0.0039062
        k(   21) = (  -0.0065926   0.3124709  -0.2883918), wk =   0.0039062
        k(   22) = (  -0.0078243   0.3062493  -0.2131287), wk =   0.0039062
        k(   23) = (  -0.0090561   0.3000276  -0.1378656), wk =   0.0039062
        k(   24) = (  -0.0102878   0.2938060  -0.0626025), wk =   0.0039062
        k(   25) = (  -0.0172793   0.4313766   0.0189908), wk =   0.0039062
        k(   26) = (  -0.0185111   0.4251550   0.0942539), wk =   0.0039062
        k(   27) = (  -0.0197428   0.4189334   0.1695170), wk =   0.0039062
        k(   28) = (  -0.0209746   0.4127117   0.2447801), wk =   0.0039062
        k(   29) = (  -0.0123524   0.4562631  -0.2820615), wk =   0.0039062
        k(   30) = (  -0.0135841   0.4500415  -0.2067984), wk =   0.0039062
        k(   31) = (  -0.0148159   0.4438198  -0.1315353), wk =   0.0039062
        k(   32) = (  -0.0160476   0.4375982  -0.0562722), wk =   0.0039062
        k(   33) = (   0.0230391  -0.5751688  -0.0253211), wk =   0.0039062
        k(   34) = (   0.0218074  -0.5813904   0.0499420), wk =   0.0039062
        k(   35) = (   0.0205756  -0.5876120   0.1252051), wk =   0.0039062
        k(   36) = (   0.0193439  -0.5938337   0.2004681), wk =   0.0039062
        k(   37) = (   0.0279661  -0.5502823  -0.3263735), wk =   0.0039062
        k(   38) = (   0.0267343  -0.5565039  -0.2511104), wk =   0.0039062
        k(   39) = (   0.0255026  -0.5627256  -0.1758473), wk =   0.0039062
        k(   40) = (   0.0242709  -0.5689472  -0.1005842), wk =   0.0039062
        k(   41) = (   0.0172793  -0.4313766  -0.0189908), wk =   0.0039062
        k(   42) = (   0.0160476  -0.4375982   0.0562722), wk =   0.0039062
        k(   43) = (   0.0148159  -0.4438198   0.1315353), wk =   0.0039062
        k(   44) = (   0.0135841  -0.4500415   0.2067984), wk =   0.0039062
        k(   45) = (   0.0222063  -0.4064901  -0.3200432), wk =   0.0039062
        k(   46) = (   0.0209746  -0.4127117  -0.2447801), wk =   0.0039062
        k(   47) = (   0.0197428  -0.4189334  -0.1695170), wk =   0.0039062
        k(   48) = (   0.0185111  -0.4251550  -0.0942539), wk =   0.0039062
        k(   49) = (   0.0115196  -0.2875844  -0.0126606), wk =   0.0039062
        k(   50) = (   0.0102878  -0.2938060   0.0626025), wk =   0.0039062
        k(   51) = (   0.0090561  -0.3000276   0.1378656), wk =   0.0039062
        k(   52) = (   0.0078243  -0.3062493   0.2131287), wk =   0.0039062
        k(   53) = (   0.0164465  -0.2626979  -0.3137129), wk =   0.0039062
        k(   54) = (   0.0152148  -0.2689195  -0.2384498), wk =   0.0039062
        k(   55) = (   0.0139830  -0.2751412  -0.1631867), wk =   0.0039062
        k(   56) = (   0.0127513  -0.2813628  -0.0879236), wk =   0.0039062
        k(   57) = (   0.0057598  -0.1437922  -0.0063303), wk =   0.0039062
        k(   58) = (   0.0045280  -0.1500138   0.0689328), wk =   0.0039062
        k(   59) = (   0.0032963  -0.1562354   0.1441959), wk =   0.0039062
        k(   60) = (   0.0020646  -0.1624571   0.2194590), wk =   0.0039062
[...]
        k(  498) = (  -0.1118381  -0.3657195   0.0536496), wk =   0.0039062
        k(  499) = (  -0.1130699  -0.3719412   0.1289127), wk =   0.0039062
        k(  500) = (  -0.1143016  -0.3781628   0.2041758), wk =   0.0039062
        k(  501) = (  -0.1056794  -0.3346114  -0.3226658), wk =   0.0039062
        k(  502) = (  -0.1069111  -0.3408331  -0.2474027), wk =   0.0039062
        k(  503) = (  -0.1081429  -0.3470547  -0.1721396), wk =   0.0039062
        k(  504) = (  -0.1093746  -0.3532763  -0.0968765), wk =   0.0039062
        k(  505) = (  -0.1163661  -0.2157057  -0.0152832), wk =   0.0039062
        k(  506) = (  -0.1175979  -0.2219273   0.0599799), wk =   0.0039062
        k(  507) = (  -0.1188296  -0.2281490   0.1352430), wk =   0.0039062
        k(  508) = (  -0.1200614  -0.2343706   0.2105061), wk =   0.0039062
        k(  509) = (  -0.1114392  -0.1908192  -0.3163355), wk =   0.0039062
        k(  510) = (  -0.1126709  -0.1970409  -0.2410724), wk =   0.0039062
        k(  511) = (  -0.1139027  -0.2032625  -0.1658093), wk =   0.0039062
        k(  512) = (  -0.1151344  -0.2094841  -0.0905463), wk =   0.0039062

                       cryst. coord.
        k(    1) = (   0.0000000   0.0000000   0.0000000), wk =   0.0039062
        k(    2) = (   0.0000000   0.0000000   0.1250000), wk =   0.0039062
        k(    3) = (   0.0000000   0.0000000   0.2500000), wk =   0.0039062
        k(    4) = (   0.0000000   0.0000000   0.3750000), wk =   0.0039062
        k(    5) = (   0.0000000  -0.0000000  -0.5000000), wk =   0.0039062
        k(    6) = (   0.0000000  -0.0000000  -0.3750000), wk =   0.0039062
        k(    7) = (   0.0000000  -0.0000000  -0.2500000), wk =   0.0039062
        k(    8) = (   0.0000000  -0.0000000  -0.1250000), wk =   0.0039062
        k(    9) = (   0.0000000   0.1250000  -0.0000000), wk =   0.0039062
        k(   10) = (   0.0000000   0.1250000   0.1250000), wk =   0.0039062
        k(   11) = (   0.0000000   0.1250000   0.2500000), wk =   0.0039062
        k(   12) = (   0.0000000   0.1250000   0.3750000), wk =   0.0039062
        k(   13) = (   0.0000000   0.1250000  -0.5000000), wk =   0.0039062
        k(   14) = (   0.0000000   0.1250000  -0.3750000), wk =   0.0039062
        k(   15) = (   0.0000000   0.1250000  -0.2500000), wk =   0.0039062
        k(   16) = (   0.0000000   0.1250000  -0.1250000), wk =   0.0039062
        k(   17) = (   0.0000000   0.2500000  -0.0000000), wk =   0.0039062
        k(   18) = (   0.0000000   0.2500000   0.1250000), wk =   0.0039062
        k(   19) = (   0.0000000   0.2500000   0.2500000), wk =   0.0039062
        k(   20) = (   0.0000000   0.2500000   0.3750000), wk =   0.0039062
        k(   21) = (   0.0000000   0.2500000  -0.5000000), wk =   0.0039062
        k(   22) = (   0.0000000   0.2500000  -0.3750000), wk =   0.0039062
        k(   23) = (   0.0000000   0.2500000  -0.2500000), wk =   0.0039062
        k(   24) = (   0.0000000   0.2500000  -0.1250000), wk =   0.0039062
        k(   25) = (   0.0000000   0.3750000  -0.0000000), wk =   0.0039062
        k(   26) = (   0.0000000   0.3750000   0.1250000), wk =   0.0039062
        k(   27) = (   0.0000000   0.3750000   0.2500000), wk =   0.0039062
        k(   28) = (   0.0000000   0.3750000   0.3750000), wk =   0.0039062
        k(   29) = (   0.0000000   0.3750000  -0.5000000), wk =   0.0039062
        k(   30) = (   0.0000000   0.3750000  -0.3750000), wk =   0.0039062
        k(   31) = (   0.0000000   0.3750000  -0.2500000), wk =   0.0039062
        k(   32) = (   0.0000000   0.3750000  -0.1250000), wk =   0.0039062
        k(   33) = (  -0.0000000  -0.5000000   0.0000000), wk =   0.0039062
        k(   34) = (  -0.0000000  -0.5000000   0.1250000), wk =   0.0039062
        k(   35) = (  -0.0000000  -0.5000000   0.2500000), wk =   0.0039062
        k(   36) = (  -0.0000000  -0.5000000   0.3750000), wk =   0.0039062
        k(   37) = (  -0.0000000  -0.5000000  -0.5000000), wk =   0.0039062
        k(   38) = (  -0.0000000  -0.5000000  -0.3750000), wk =   0.0039062
        k(   39) = (  -0.0000000  -0.5000000  -0.2500000), wk =   0.0039062
        k(   40) = (  -0.0000000  -0.5000000  -0.1250000), wk =   0.0039062
        k(   41) = (  -0.0000000  -0.3750000   0.0000000), wk =   0.0039062
        k(   42) = (  -0.0000000  -0.3750000   0.1250000), wk =   0.0039062
        k(   43) = (  -0.0000000  -0.3750000   0.2500000), wk =   0.0039062
        k(   44) = (  -0.0000000  -0.3750000   0.3750000), wk =   0.0039062
        k(   45) = (  -0.0000000  -0.3750000  -0.5000000), wk =   0.0039062
        k(   46) = (  -0.0000000  -0.3750000  -0.3750000), wk =   0.0039062
        k(   47) = (  -0.0000000  -0.3750000  -0.2500000), wk =   0.0039062
        k(   48) = (  -0.0000000  -0.3750000  -0.1250000), wk =   0.0039062
        k(   49) = (  -0.0000000  -0.2500000   0.0000000), wk =   0.0039062
        k(   50) = (  -0.0000000  -0.2500000   0.1250000), wk =   0.0039062
        k(   51) = (  -0.0000000  -0.2500000   0.2500000), wk =   0.0039062
        k(   52) = (  -0.0000000  -0.2500000   0.3750000), wk =   0.0039062
        k(   53) = (  -0.0000000  -0.2500000  -0.5000000), wk =   0.0039062
        k(   54) = (  -0.0000000  -0.2500000  -0.3750000), wk =   0.0039062
        k(   55) = (  -0.0000000  -0.2500000  -0.2500000), wk =   0.0039062
        k(   56) = (  -0.0000000  -0.2500000  -0.1250000), wk =   0.0039062
        k(   57) = (  -0.0000000  -0.1250000   0.0000000), wk =   0.0039062
        k(   58) = (  -0.0000000  -0.1250000   0.1250000), wk =   0.0039062
        k(   59) = (  -0.0000000  -0.1250000   0.2500000), wk =   0.0039062
        k(   60) = (  -0.0000000  -0.1250000   0.3750000), wk =   0.0039062
[...]
        k(  498) = (  -0.1250000  -0.2500000   0.1250000), wk =   0.0039062
        k(  499) = (  -0.1250000  -0.2500000   0.2500000), wk =   0.0039062
        k(  500) = (  -0.1250000  -0.2500000   0.3750000), wk =   0.0039062
        k(  501) = (  -0.1250000  -0.2500000  -0.5000000), wk =   0.0039062
        k(  502) = (  -0.1250000  -0.2500000  -0.3750000), wk =   0.0039062
        k(  503) = (  -0.1250000  -0.2500000  -0.2500000), wk =   0.0039062
        k(  504) = (  -0.1250000  -0.2500000  -0.1250000), wk =   0.0039062
        k(  505) = (  -0.1250000  -0.1250000   0.0000000), wk =   0.0039062
        k(  506) = (  -0.1250000  -0.1250000   0.1250000), wk =   0.0039062
        k(  507) = (  -0.1250000  -0.1250000   0.2500000), wk =   0.0039062
        k(  508) = (  -0.1250000  -0.1250000   0.3750000), wk =   0.0039062
        k(  509) = (  -0.1250000  -0.1250000  -0.5000000), wk =   0.0039062
        k(  510) = (  -0.1250000  -0.1250000  -0.3750000), wk =   0.0039062
        k(  511) = (  -0.1250000  -0.1250000  -0.2500000), wk =   0.0039062
        k(  512) = (  -0.1250000  -0.1250000  -0.1250000), wk =   0.0039062

     Initial potential from superposition of free atoms

     starting charge       3.9997, renormalised to       4.0000
     Starting wfcs are    8 randomized atomic wfcs

     Self-consistent Calculation

     iteration #  1     ecut=    40.00 Ry     beta= 0.10
     Davidson diagonalization with overlap

     ethr =  1.00E-02,  avg # of iterations =  3.1

     Threshold (ethr) on eigenvalues was too large:
     Diagonalizing with lowered threshold

     Davidson diagonalization with overlap

     ethr =  3.56E-05,  avg # of iterations =  7.6

     End of self-consistent calculation

          k = 0.0000 0.0000 0.0000 (   463 PWs)   bands (ev):

    -3.2939   3.1282   8.3258  24.9174

     occupation numbers
     1.0000   1.0000   0.9974   0.0000

          k =-0.0012-0.0062 0.0753 (   455 PWs)   bands (ev):

[...]

          k = 0.3734 0.0782-0.0547 (   461 PWs)   bands (ev):

[...]

          k =-0.1151-0.2095-0.0905 (   453 PWs)   bands (ev):

    -1.8328   4.1089   9.8418  18.1694

     occupation numbers
     1.0000   1.0000   0.0000   0.0000

     the Fermi energy is     8.4781 ev

!    total energy              =      -5.35861317 Ry
     estimated scf accuracy    <       0.00187400 Ry
     smearing contrib. (-TS)   =      -0.00003826 Ry
     internal energy E=F+TS    =      -5.35857491 Ry

     The total energy is F=E-TS. E is the sum of the following terms:
     one-electron contribution =       4.04875509 Ry
     hartree contribution      =       0.00451536 Ry
     xc contribution           =      -3.29057796 Ry
     ewald contribution        =      -6.12126741 Ry

     convergence has been achieved in   1 iterations

     Forces acting on atoms (cartesian axes, Ry/au):

     atom    1 type  1   force =    -0.03323456    0.01136139   -0.00761182
     atom    2 type  1   force =     0.03323456   -0.01136139    0.00761182
     The non-local contrib.  to forces
     atom    1 type  1   force =    -0.04958292    0.01295649   -0.00629447
     atom    2 type  1   force =     0.04961179   -0.01299872    0.00633210
     The ionic contribution  to forces
     atom    1 type  1   force =    -0.02304829    0.00830967   -0.01492677
     atom    2 type  1   force =     0.02304829   -0.00830967    0.01492677
     The local contribution  to forces
     atom    1 type  1   force =     0.03759531   -0.00953593    0.01463577
     atom    2 type  1   force =    -0.03760099    0.00955679   -0.01465310
     The core correction contribution to forces
     atom    1 type  1   force =     0.00220894   -0.00055868    0.00033654
     atom    2 type  1   force =    -0.00217324    0.00056576   -0.00048643
     The Hubbard contrib.    to forces
     atom    1 type  1   force =     0.00000000    0.00000000    0.00000000
     atom    2 type  1   force =     0.00000000    0.00000000    0.00000000
     The SCF correction term to forces
     atom    1 type  1   force =    -0.00037597    0.00018275   -0.00142555
     atom    2 type  1   force =     0.00038036   -0.00018263    0.00142984

     Total force =     0.050824     Total SCF correction =     0.002105

     Computing stress (Cartesian axis) and pressure

          total   stress  (Ry/bohr**3)                   (kbar)     P=       14.43
   0.00035660  -0.00066526   0.00036843           52.46      -97.86       54.20
  -0.00066526   0.00021726  -0.00040542          -97.86       31.96      -59.64
   0.00036843  -0.00040542  -0.00027955           54.20      -59.64      -41.12

     kinetic stress (kbar)   2808.87    -81.33     40.05
                              -81.33   2796.18    -45.60
                               40.05    -45.60   2716.79

     local   stress (kbar)    259.63    122.63     -5.82
                              122.63    257.04     23.13
                               -5.82     23.13    206.53

     nonloc. stress (kbar)    889.83    -18.82     -0.05
                              -18.82    889.25     -2.89
                               -0.05     -2.89    907.18

     hartree stress (kbar)      0.54     -1.05     -0.54
                               -1.05      1.24      0.14
                               -0.54      0.14      4.42

     exc-cor stress (kbar)    120.24     -2.08      0.30
                               -2.08    120.16     -0.56
                                0.30     -0.56    120.42

     corecor stress (kbar)  -1216.87      6.23     -1.02
                                6.23  -1216.57      1.74
                               -1.02      1.74  -1216.97

     ewald   stress (kbar)  -2809.78   -123.44     21.27
                             -123.44  -2815.34    -35.59
                               21.27    -35.59  -2779.49

     hubbard stress (kbar)      0.00      0.00      0.00
                                0.00      0.00      0.00
                                0.00      0.00      0.00

     DFT-D   stress (kbar)      0.00      0.00      0.00
                                0.00      0.00      0.00
                                0.00      0.00      0.00

     XDM     stress (kbar)      0.00      0.00      0.00
                                0.00      0.00      0.00
                                0.00      0.00      0.00

     dft-nl  stress (kbar)      0.00      0.00      0.00
                                0.00      0.00      0.00
                                0.00      0.00      0.00

     TS-vdW  stress (kbar)      0.00      0.00      0.00
                                0.00      0.00      0.00
                                0.00      0.00      0.00

     MDB     stress (kbar)      0.00      0.00      0.00
                                0.00      0.00      0.00
                                0.00      0.00      0.00

     3D-RISM stress (kbar)      0.00      0.00      0.00
                                0.00      0.00      0.00
                                0.00      0.00      0.00

     Writing all to output data dir ../tmp/Be/Be.save/ :
     XML data file, charge density, pseudopotentials, collected wavefunctions

     General routines

   This run was terminated on:  18:51: 0   6May2024

   JOB DONE.