     Program PWSCF v.7.3.1 starts on  6May2024 at 18:51: 5

     Reading input from Be8.pw.in

     Current dimensions of program PWSCF are:
     Max number of different atomic species (ntypx) = 10
     Max number of k-points (npk) =  40000
     Max angular momentum in pseudopotentials (lmaxx) =  4

     Using Slab Decomposition

     bravais-lattice index     =            0
     lattice parameter (alat)  =       4.5872  a.u.
     unit-cell volume          =     118.8229 (a.u.)^3
     number of atoms/cell      =            2
     number of atomic types    =            1
     number of electrons       =         4.00
     number of Kohn-Sham states=            4
     kinetic-energy cutoff     =      40.0000  Ry
     charge density cutoff     =     160.0000  Ry
     scf convergence threshold =      2.0E-02
     mixing beta               =       0.1000
     number of iterations used =            8  plain     mixing
     Exchange-correlation= PBE
                           (   1   4   3   4   0   0   0)

     celldm(1)=   4.587228  celldm(2)=   0.000000  celldm(3)=   0.000000
     celldm(4)=   0.000000  celldm(5)=   0.000000  celldm(6)=   0.000000

     crystal axes: (cart. coord. in units of alat)
               a(1) = (   0.996828   0.053159   0.059233 )
               a(2) = (  -0.506026   0.778937   0.048338 )
               a(3) = (  -0.022167   0.071100   1.537987 )

     reciprocal axes: (cart. coord. in units 2 pi/alat)
               b(1) = (  0.970416  0.631361 -0.015201 )
               b(2) = ( -0.062996  1.246509 -0.058533 )
               b(3) = ( -0.035394 -0.063493  0.652626 )

     PseudoPot. # 1 for Be read from file:
     ../pseudo/Be.pbe-n-rrkjus_psl.1.0.0.UPF
     MD5 check sum: 734a25375992c446e1da9bf329ae4716
     Pseudo is Ultrasoft + core correction, Zval =  2.0
     Generated using &quot;atomic&quot; code by A. Dal Corso  v.6.6
     Using radial grid of 1041 points,  4 beta functions with:
                l(1) =   0
                l(2) =   0
                l(3) =   1
                l(4) =   1
     Q(r) pseudized with 0 coefficients

     atomic species   valence    mass     pseudopotential
     Be                2.00     9.01218     Be( 1.00)

     No symmetry found

                                    s                        frac. trans.

      isym =  1     identity

 cryst.   s( 1) = (     1          0          0      )
                  (     0          1          0      )
                  (     0          0          1      )

 cart.    s( 1) = (  1.0000000 -0.0000000  0.0000000 )
                  ( -0.0000000  1.0000000 -0.0000000 )
                  (  0.0000000 -0.0000000  1.0000000 )

   Cartesian axes

     site n.     atom                  positions (alat units)
         1        Be     tau(   1) = (   0.7221068   0.1322387   1.1030775  )
         2        Be     tau(   2) = (  -0.2566349   0.6739823   0.3675475  )

   Crystallographic axes

     site n.     atom                  positions (cryst. coord.)
         1        Be     tau(   1) = (  0.7674667  0.0547803  0.6859425  )
         2        Be     tau(   2) = (  0.1708967  0.8347781  0.2061612  )

     number of k points=   512  Fermi-Dirac smearing, width (Ry)=  0.0019
                       cart. coord. in units 2pi/alat
        k(    1) = (   0.0000000   0.0000000   0.0000000), wk =   0.0039062
        k(    2) = (  -0.0044242  -0.0079366   0.0815782), wk =   0.0039062
        k(    3) = (  -0.0088484  -0.0158732   0.1631564), wk =   0.0039062
        k(    4) = (  -0.0132726  -0.0238098   0.2447347), wk =   0.0039062
        k(    5) = (   0.0176969   0.0317464  -0.3263129), wk =   0.0039062
        k(    6) = (   0.0132726   0.0238098  -0.2447347), wk =   0.0039062
        k(    7) = (   0.0088484   0.0158732  -0.1631564), wk =   0.0039062
        k(    8) = (   0.0044242   0.0079366  -0.0815782), wk =   0.0039062
        k(    9) = (  -0.0078745   0.1558136  -0.0073166), wk =   0.0039062
        k(   10) = (  -0.0122987   0.1478770   0.0742616), wk =   0.0039062
        k(   11) = (  -0.0167229   0.1399404   0.1558398), wk =   0.0039062
        k(   12) = (  -0.0211472   0.1320038   0.2374180), wk =   0.0039062
        k(   13) = (   0.0098223   0.1875599  -0.3336295), wk =   0.0039062
        k(   14) = (   0.0053981   0.1796233  -0.2520513), wk =   0.0039062
        k(   15) = (   0.0009739   0.1716868  -0.1704731), wk =   0.0039062
        k(   16) = (  -0.0034503   0.1637502  -0.0888948), wk =   0.0039062
        k(   17) = (  -0.0157490   0.3116272  -0.0146333), wk =   0.0039062
        k(   18) = (  -0.0201732   0.3036906   0.0669450), wk =   0.0039062
        k(   19) = (  -0.0245975   0.2957540   0.1485232), wk =   0.0039062
        k(   20) = (  -0.0290217   0.2878174   0.2301014), wk =   0.0039062
        k(   21) = (   0.0019478   0.3433735  -0.3409461), wk =   0.0039062
        k(   22) = (  -0.0024764   0.3354369  -0.2593679), wk =   0.0039062
        k(   23) = (  -0.0069006   0.3275003  -0.1777897), wk =   0.0039062
        k(   24) = (  -0.0113248   0.3195637  -0.0962115), wk =   0.0039062
        k(   25) = (  -0.0236235   0.4674407  -0.0219499), wk =   0.0039062
        k(   26) = (  -0.0280478   0.4595041   0.0596283), wk =   0.0039062
        k(   27) = (  -0.0324720   0.4515676   0.1412066), wk =   0.0039062
        k(   28) = (  -0.0368962   0.4436310   0.2227848), wk =   0.0039062
        k(   29) = (  -0.0059267   0.4991871  -0.3482628), wk =   0.0039062
        k(   30) = (  -0.0103509   0.4912505  -0.2666845), wk =   0.0039062
        k(   31) = (  -0.0147751   0.4833139  -0.1851063), wk =   0.0039062
        k(   32) = (  -0.0191993   0.4753773  -0.1035281), wk =   0.0039062
        k(   33) = (   0.0314981  -0.6232543   0.0292665), wk =   0.0039062
        k(   34) = (   0.0270738  -0.6311909   0.1108447), wk =   0.0039062
        k(   35) = (   0.0226496  -0.6391275   0.1924229), wk =   0.0039062
        k(   36) = (   0.0182254  -0.6470641   0.2740012), wk =   0.0039062
        k(   37) = (   0.0491949  -0.5915079  -0.2970464), wk =   0.0039062
        k(   38) = (   0.0447707  -0.5994445  -0.2154682), wk =   0.0039062
        k(   39) = (   0.0403465  -0.6073811  -0.1338899), wk =   0.0039062
        k(   40) = (   0.0359223  -0.6153177  -0.0523117), wk =   0.0039062
        k(   41) = (   0.0236235  -0.4674407   0.0219499), wk =   0.0039062
        k(   42) = (   0.0191993  -0.4753773   0.1035281), wk =   0.0039062
        k(   43) = (   0.0147751  -0.4833139   0.1851063), wk =   0.0039062
        k(   44) = (   0.0103509  -0.4912505   0.2666845), wk =   0.0039062
        k(   45) = (   0.0413204  -0.4356944  -0.3043630), wk =   0.0039062
        k(   46) = (   0.0368962  -0.4436310  -0.2227848), wk =   0.0039062
        k(   47) = (   0.0324720  -0.4515676  -0.1412066), wk =   0.0039062
        k(   48) = (   0.0280478  -0.4595041  -0.0596283), wk =   0.0039062
        k(   49) = (   0.0157490  -0.3116272   0.0146333), wk =   0.0039062
        k(   50) = (   0.0113248  -0.3195637   0.0962115), wk =   0.0039062
        k(   51) = (   0.0069006  -0.3275003   0.1777897), wk =   0.0039062
        k(   52) = (   0.0024764  -0.3354369   0.2593679), wk =   0.0039062
        k(   53) = (   0.0334459  -0.2798808  -0.3116796), wk =   0.0039062
        k(   54) = (   0.0290217  -0.2878174  -0.2301014), wk =   0.0039062
        k(   55) = (   0.0245975  -0.2957540  -0.1485232), wk =   0.0039062
        k(   56) = (   0.0201732  -0.3036906  -0.0669450), wk =   0.0039062
        k(   57) = (   0.0078745  -0.1558136   0.0073166), wk =   0.0039062
        k(   58) = (   0.0034503  -0.1637502   0.0888948), wk =   0.0039062
        k(   59) = (  -0.0009739  -0.1716868   0.1704731), wk =   0.0039062
        k(   60) = (  -0.0053981  -0.1796233   0.2520513), wk =   0.0039062
[...]
        k(  498) = (  -0.1099772  -0.3984839   0.0981116), wk =   0.0039062
        k(  499) = (  -0.1144014  -0.4064205   0.1796898), wk =   0.0039062
        k(  500) = (  -0.1188256  -0.4143571   0.2612680), wk =   0.0039062
        k(  501) = (  -0.0878561  -0.3588010  -0.3097795), wk =   0.0039062
        k(  502) = (  -0.0922803  -0.3667375  -0.2282013), wk =   0.0039062
        k(  503) = (  -0.0967046  -0.3746741  -0.1466231), wk =   0.0039062
        k(  504) = (  -0.1011288  -0.3826107  -0.0650449), wk =   0.0039062
        k(  505) = (  -0.1134275  -0.2347337   0.0092167), wk =   0.0039062
        k(  506) = (  -0.1178517  -0.2426703   0.0907950), wk =   0.0039062
        k(  507) = (  -0.1222759  -0.2506069   0.1723732), wk =   0.0039062
        k(  508) = (  -0.1267002  -0.2585435   0.2539514), wk =   0.0039062
        k(  509) = (  -0.0957306  -0.2029874  -0.3170961), wk =   0.0039062
        k(  510) = (  -0.1001549  -0.2109240  -0.2355179), wk =   0.0039062
        k(  511) = (  -0.1045791  -0.2188606  -0.1539397), wk =   0.0039062
        k(  512) = (  -0.1090033  -0.2267971  -0.0723615), wk =   0.0039062

                       cryst. coord.
        k(    1) = (   0.0000000   0.0000000   0.0000000), wk =   0.0039062
        k(    2) = (   0.0000000   0.0000000   0.1250000), wk =   0.0039062
        k(    3) = (   0.0000000   0.0000000   0.2500000), wk =   0.0039062
        k(    4) = (   0.0000000   0.0000000   0.3750000), wk =   0.0039062
        k(    5) = (   0.0000000   0.0000000  -0.5000000), wk =   0.0039062
        k(    6) = (   0.0000000   0.0000000  -0.3750000), wk =   0.0039062
        k(    7) = (   0.0000000   0.0000000  -0.2500000), wk =   0.0039062
        k(    8) = (   0.0000000   0.0000000  -0.1250000), wk =   0.0039062
        k(    9) = (  -0.0000000   0.1250000  -0.0000000), wk =   0.0039062
        k(   10) = (  -0.0000000   0.1250000   0.1250000), wk =   0.0039062
        k(   11) = (   0.0000000   0.1250000   0.2500000), wk =   0.0039062
        k(   12) = (  -0.0000000   0.1250000   0.3750000), wk =   0.0039062
        k(   13) = (  -0.0000000   0.1250000  -0.5000000), wk =   0.0039062
        k(   14) = (   0.0000000   0.1250000  -0.3750000), wk =   0.0039062
        k(   15) = (   0.0000000   0.1250000  -0.2500000), wk =   0.0039062
        k(   16) = (  -0.0000000   0.1250000  -0.1250000), wk =   0.0039062
        k(   17) = (  -0.0000000   0.2500000  -0.0000000), wk =   0.0039062
        k(   18) = (  -0.0000000   0.2500000   0.1250000), wk =   0.0039062
        k(   19) = (  -0.0000000   0.2500000   0.2500000), wk =   0.0039062
        k(   20) = (  -0.0000000   0.2500000   0.3750000), wk =   0.0039062
        k(   21) = (   0.0000000   0.2500000  -0.5000000), wk =   0.0039062
        k(   22) = (  -0.0000000   0.2500000  -0.3750000), wk =   0.0039062
        k(   23) = (  -0.0000000   0.2500000  -0.2500000), wk =   0.0039062
        k(   24) = (  -0.0000000   0.2500000  -0.1250000), wk =   0.0039062
        k(   25) = (  -0.0000000   0.3750000  -0.0000000), wk =   0.0039062
        k(   26) = (  -0.0000000   0.3750000   0.1250000), wk =   0.0039062
        k(   27) = (  -0.0000000   0.3750000   0.2500000), wk =   0.0039062
        k(   28) = (  -0.0000000   0.3750000   0.3750000), wk =   0.0039062
        k(   29) = (  -0.0000000   0.3750000  -0.5000000), wk =   0.0039062
        k(   30) = (  -0.0000000   0.3750000  -0.3750000), wk =   0.0039062
        k(   31) = (  -0.0000000   0.3750000  -0.2500000), wk =   0.0039062
        k(   32) = (  -0.0000000   0.3750000  -0.1250000), wk =   0.0039062
        k(   33) = (   0.0000000  -0.5000000   0.0000000), wk =   0.0039062
        k(   34) = (   0.0000000  -0.5000000   0.1250000), wk =   0.0039062
        k(   35) = (   0.0000000  -0.5000000   0.2500000), wk =   0.0039062
        k(   36) = (   0.0000000  -0.5000000   0.3750000), wk =   0.0039062
        k(   37) = (   0.0000000  -0.5000000  -0.5000000), wk =   0.0039062
        k(   38) = (   0.0000000  -0.5000000  -0.3750000), wk =   0.0039062
        k(   39) = (   0.0000000  -0.5000000  -0.2500000), wk =   0.0039062
        k(   40) = (   0.0000000  -0.5000000  -0.1250000), wk =   0.0039062
        k(   41) = (   0.0000000  -0.3750000   0.0000000), wk =   0.0039062
        k(   42) = (   0.0000000  -0.3750000   0.1250000), wk =   0.0039062
        k(   43) = (   0.0000000  -0.3750000   0.2500000), wk =   0.0039062
        k(   44) = (   0.0000000  -0.3750000   0.3750000), wk =   0.0039062
        k(   45) = (   0.0000000  -0.3750000  -0.5000000), wk =   0.0039062
        k(   46) = (   0.0000000  -0.3750000  -0.3750000), wk =   0.0039062
        k(   47) = (   0.0000000  -0.3750000  -0.2500000), wk =   0.0039062
        k(   48) = (   0.0000000  -0.3750000  -0.1250000), wk =   0.0039062
        k(   49) = (   0.0000000  -0.2500000   0.0000000), wk =   0.0039062
        k(   50) = (   0.0000000  -0.2500000   0.1250000), wk =   0.0039062
        k(   51) = (   0.0000000  -0.2500000   0.2500000), wk =   0.0039062
        k(   52) = (   0.0000000  -0.2500000   0.3750000), wk =   0.0039062
        k(   53) = (   0.0000000  -0.2500000  -0.5000000), wk =   0.0039062
        k(   54) = (   0.0000000  -0.2500000  -0.3750000), wk =   0.0039062
        k(   55) = (   0.0000000  -0.2500000  -0.2500000), wk =   0.0039062
        k(   56) = (   0.0000000  -0.2500000  -0.1250000), wk =   0.0039062
        k(   57) = (   0.0000000  -0.1250000   0.0000000), wk =   0.0039062
        k(   58) = (   0.0000000  -0.1250000   0.1250000), wk =   0.0039062
        k(   59) = (   0.0000000  -0.1250000   0.2500000), wk =   0.0039062
        k(   60) = (   0.0000000  -0.1250000   0.3750000), wk =   0.0039062
[...]
        k(  498) = (  -0.1250000  -0.2500000   0.1250000), wk =   0.0039062
        k(  499) = (  -0.1250000  -0.2500000   0.2500000), wk =   0.0039062
        k(  500) = (  -0.1250000  -0.2500000   0.3750000), wk =   0.0039062
        k(  501) = (  -0.1250000  -0.2500000  -0.5000000), wk =   0.0039062
        k(  502) = (  -0.1250000  -0.2500000  -0.3750000), wk =   0.0039062
        k(  503) = (  -0.1250000  -0.2500000  -0.2500000), wk =   0.0039062
        k(  504) = (  -0.1250000  -0.2500000  -0.1250000), wk =   0.0039062
        k(  505) = (  -0.1250000  -0.1250000   0.0000000), wk =   0.0039062
        k(  506) = (  -0.1250000  -0.1250000   0.1250000), wk =   0.0039062
        k(  507) = (  -0.1250000  -0.1250000   0.2500000), wk =   0.0039062
        k(  508) = (  -0.1250000  -0.1250000   0.3750000), wk =   0.0039062
        k(  509) = (  -0.1250000  -0.1250000  -0.5000000), wk =   0.0039062
        k(  510) = (  -0.1250000  -0.1250000  -0.3750000), wk =   0.0039062
        k(  511) = (  -0.1250000  -0.1250000  -0.2500000), wk =   0.0039062
        k(  512) = (  -0.1250000  -0.1250000  -0.1250000), wk =   0.0039062

     Initial potential from superposition of free atoms

     starting charge       3.9997, renormalised to       4.0000
     Starting wfcs are    8 randomized atomic wfcs

     Self-consistent Calculation

     iteration #  1     ecut=    40.00 Ry     beta= 0.10
     Davidson diagonalization with overlap

     ethr =  1.00E-02,  avg # of iterations =  2.9

     Threshold (ethr) on eigenvalues was too large:
     Diagonalizing with lowered threshold

     Davidson diagonalization with overlap

     ethr =  1.03E-04,  avg # of iterations =  5.9

     End of self-consistent calculation

          k = 0.0000 0.0000 0.0000 (   517 PWs)   bands (ev):

    -3.6688   3.0275   7.8611  20.4481

     occupation numbers
     1.0000   1.0000   0.0000   0.0000

          k =-0.0044-0.0079 0.0816 (   514 PWs)   bands (ev):

[...]

          k = 0.3762 0.0889-0.0800 (   505 PWs)   bands (ev):

[...]

          k =-0.1090-0.2268-0.0724 (   511 PWs)   bands (ev):

    -2.3424   4.2987   8.7634  15.5394

     occupation numbers
     1.0000   1.0000   0.0000   0.0000

     the Fermi energy is     7.2474 ev

!    total energy              =      -5.34846910 Ry
     estimated scf accuracy    <       0.00531173 Ry
     smearing contrib. (-TS)   =      -0.00007459 Ry
     internal energy E=F+TS    =      -5.34839451 Ry

     The total energy is F=E-TS. E is the sum of the following terms:
     one-electron contribution =       3.75590172 Ry
     hartree contribution      =       0.01527682 Ry
     xc contribution           =      -3.21131751 Ry
     ewald contribution        =      -5.90825555 Ry

     convergence has been achieved in   1 iterations

     Forces acting on atoms (cartesian axes, Ry/au):

     atom    1 type  1   force =     0.00486524    0.00507769   -0.00659110
     atom    2 type  1   force =    -0.00486524   -0.00507769    0.00659110
     The non-local contrib.  to forces
     atom    1 type  1   force =    -0.00705651   -0.00721252    0.05273103
     atom    2 type  1   force =     0.00711279    0.00719379   -0.05278333
     The ionic contribution  to forces
     atom    1 type  1   force =    -0.00623459   -0.01645206    0.10470144
     atom    2 type  1   force =     0.00623459    0.01645206   -0.10470144
     The local contribution  to forces
     atom    1 type  1   force =     0.01967155    0.03139793   -0.19185152
     atom    2 type  1   force =    -0.01969045   -0.03138822    0.19187487
     The core correction contribution to forces
     atom    1 type  1   force =     0.00052467    0.00067608   -0.00362316
     atom    2 type  1   force =    -0.00050586   -0.00069668    0.00364291
     The Hubbard contrib.    to forces
     atom    1 type  1   force =     0.00000000    0.00000000    0.00000000
     atom    2 type  1   force =     0.00000000    0.00000000    0.00000000
     The SCF correction term to forces
     atom    1 type  1   force =    -0.00200268   -0.00334483    0.03143803
     atom    2 type  1   force =     0.00202090    0.00334828   -0.03145499

     Total force =     0.013631     Total SCF correction =     0.044814
     SCF correction compared to forces is large: reduce conv_thr to get better values

     Computing stress (Cartesian axis) and pressure

          total   stress  (Ry/bohr**3)                   (kbar)     P=      -89.09
  -0.00100470  -0.00039438  -0.00040095         -147.80      -58.02      -58.98
  -0.00039438  -0.00030447  -0.00064614          -58.02      -44.79      -95.05
  -0.00040095  -0.00064614  -0.00050760          -58.98      -95.05      -74.67

     kinetic stress (kbar)   2297.48    -53.62    -37.70
                              -53.62   2405.60    -85.51
                              -37.70    -85.51   2354.35

     local   stress (kbar)    201.04     56.69     53.82
                               56.69    188.09     44.88
                               53.82     44.88    151.98

     nonloc. stress (kbar)    761.85     -5.78     -9.04
                               -5.78    752.69     -4.70
                               -9.04     -4.70    778.66

     hartree stress (kbar)     14.34     -1.02      1.43
                               -1.02     15.25      3.11
                                1.43      3.11    -10.68

     exc-cor stress (kbar)    131.34     -1.00     -0.96
                               -1.00    131.82     -1.08
                               -0.96     -1.08    132.89

     corecor stress (kbar)  -1084.26      2.96      2.83
                                2.96  -1086.06      3.35
                                2.83      3.35  -1089.10

     ewald   stress (kbar)  -2469.59    -56.24    -69.37
                              -56.24  -2452.17    -55.10
                              -69.37    -55.10  -2392.77

     hubbard stress (kbar)      0.00      0.00      0.00
                                0.00      0.00      0.00
                                0.00      0.00      0.00

     DFT-D   stress (kbar)      0.00      0.00      0.00
                                0.00      0.00      0.00
                                0.00      0.00      0.00

     XDM     stress (kbar)      0.00      0.00      0.00
                                0.00      0.00      0.00
                                0.00      0.00      0.00

     dft-nl  stress (kbar)      0.00      0.00      0.00
                                0.00      0.00      0.00
                                0.00      0.00      0.00

     TS-vdW  stress (kbar)      0.00      0.00      0.00
                                0.00      0.00      0.00
                                0.00      0.00      0.00

     MDB     stress (kbar)      0.00      0.00      0.00
                                0.00      0.00      0.00
                                0.00      0.00      0.00

     3D-RISM stress (kbar)      0.00      0.00      0.00
                                0.00      0.00      0.00
                                0.00      0.00      0.00

     Writing all to output data dir ../tmp/Be/Be.save/ :
     XML data file, charge density, pseudopotentials, collected wavefunctions

     General routines

   This run was terminated on:  18:51:12   6May2024

   JOB DONE.