     Program PWSCF v.7.3.1 starts on  6May2024 at 18:58:36

     Reading input from Si1.pw.in

     Current dimensions of program PWSCF are:
     Max number of different atomic species (ntypx) = 10
     Max number of k-points (npk) =  40000
     Max angular momentum in pseudopotentials (lmaxx) =  4

     Using Slab Decomposition

     bravais-lattice index     =            0
     lattice parameter (alat)  =       5.0969  a.u.
     unit-cell volume          =     169.6441 (a.u.)^3
     number of atoms/cell      =            2
     number of atomic types    =            1
     number of electrons       =         8.00
     number of Kohn-Sham states=            8
     kinetic-energy cutoff     =      40.0000  Ry
     charge density cutoff     =     160.0000  Ry
     scf convergence threshold =      2.0E-02
     mixing beta               =       0.1000
     number of iterations used =            8  plain     mixing
     Exchange-correlation=  SLA  PZ   NOGX NOGC
                           (   1   1   0   0   0   0   0)

     celldm(1)=   5.096873  celldm(2)=   0.000000  celldm(3)=   0.000000
     celldm(4)=   0.000000  celldm(5)=   0.000000  celldm(6)=   0.000000

     crystal axes: (cart. coord. in units of alat)
               a(1) = (   0.996816  -0.069364  -0.039328 )
               a(2) = (  -0.438416   0.812100   0.059019 )
               a(3) = (  -0.009775   0.006792   1.645204 )

     reciprocal axes: (cart. coord. in units 2 pi/alat)
               b(1) = (  1.042489  0.562511  0.003872 )
               b(2) = (  0.088860  1.279692 -0.004755 )
               b(3) = (  0.021733 -0.032460  0.608091 )

     PseudoPot. # 1 for Si read from file:
     ../pseudo/Si.pz-vbc.UPF
     MD5 check sum: 6dfa03ddd5817404712e03e4d12deb78
     Pseudo is Norm-conserving, Zval =  4.0
     Generated by new atomic code, or converted to UPF format
     Using radial grid of  431 points,  2 beta functions with:
                l(1) =   0
                l(2) =   1

     atomic species   valence    mass     pseudopotential
     Si                4.00    28.08600     Si( 1.00)

     No symmetry found

                                    s                        frac. trans.

      isym =  1     identity

 cryst.   s( 1) = (     1          0          0      )
                  (     0          1          0      )
                  (     0          0          1      )

 cart.    s( 1) = (  1.0000000  0.0000000  0.0000000 )
                  (  0.0000000  1.0000000 -0.0000000 )
                  (  0.0000000  0.0000000  1.0000000 )

   Cartesian axes

     site n.     atom                  positions (alat units)
         1        Si     tau(   1) = (   0.0375510   0.5199770   0.4375376  )
         2        Si     tau(   2) = (   0.5110739   0.2295518   1.2273573  )

   Crystallographic axes

     site n.     atom                  positions (cryst. coord.)
         1        Si     tau(   1) = (  0.3333333  0.6666667  0.2500000  )
         2        Si     tau(   2) = (  0.6666667  0.3333333  0.7500000  )

     number of k points=   512  Fermi-Dirac smearing, width (Ry)=  0.0019
                       cart. coord. in units 2pi/alat
        k(    1) = (   0.0000000   0.0000000   0.0000000), wk =   0.0039062
        k(    2) = (   0.0027166  -0.0040575   0.0760113), wk =   0.0039062
        k(    3) = (   0.0054331  -0.0081150   0.1520226), wk =   0.0039062
        k(    4) = (   0.0081497  -0.0121726   0.2280339), wk =   0.0039062
        k(    5) = (  -0.0108663   0.0162301  -0.3040453), wk =   0.0039062
        k(    6) = (  -0.0081497   0.0121726  -0.2280339), wk =   0.0039062
        k(    7) = (  -0.0054331   0.0081150  -0.1520226), wk =   0.0039062
        k(    8) = (  -0.0027166   0.0040575  -0.0760113), wk =   0.0039062
        k(    9) = (   0.0111075   0.1599615  -0.0005944), wk =   0.0039062
        k(   10) = (   0.0138241   0.1559040   0.0754169), wk =   0.0039062
        k(   11) = (   0.0165406   0.1518465   0.1514282), wk =   0.0039062
        k(   12) = (   0.0192572   0.1477890   0.2274396), wk =   0.0039062
        k(   13) = (   0.0002412   0.1761916  -0.3046396), wk =   0.0039062
        k(   14) = (   0.0029578   0.1721341  -0.2286283), wk =   0.0039062
        k(   15) = (   0.0056744   0.1680766  -0.1526170), wk =   0.0039062
        k(   16) = (   0.0083909   0.1640190  -0.0766057), wk =   0.0039062
        k(   17) = (   0.0222150   0.3199230  -0.0011888), wk =   0.0039062
        k(   18) = (   0.0249315   0.3158655   0.0748225), wk =   0.0039062
        k(   19) = (   0.0276481   0.3118080   0.1508338), wk =   0.0039062
        k(   20) = (   0.0303647   0.3077505   0.2268452), wk =   0.0039062
        k(   21) = (   0.0113487   0.3361531  -0.3052340), wk =   0.0039062
        k(   22) = (   0.0140653   0.3320956  -0.2292227), wk =   0.0039062
        k(   23) = (   0.0167818   0.3280381  -0.1532114), wk =   0.0039062
        k(   24) = (   0.0194984   0.3239806  -0.0772001), wk =   0.0039062
        k(   25) = (   0.0333225   0.4798846  -0.0017832), wk =   0.0039062
        k(   26) = (   0.0360390   0.4758270   0.0742281), wk =   0.0039062
        k(   27) = (   0.0387556   0.4717695   0.1502395), wk =   0.0039062
        k(   28) = (   0.0414722   0.4677120   0.2262508), wk =   0.0039062
        k(   29) = (   0.0224562   0.4961147  -0.3058284), wk =   0.0039062
        k(   30) = (   0.0251728   0.4920571  -0.2298171), wk =   0.0039062
        k(   31) = (   0.0278893   0.4879996  -0.1538058), wk =   0.0039062
        k(   32) = (   0.0306059   0.4839421  -0.0777945), wk =   0.0039062
        k(   33) = (  -0.0444300  -0.6398461   0.0023776), wk =   0.0039062
        k(   34) = (  -0.0417134  -0.6439036   0.0783889), wk =   0.0039062
        k(   35) = (  -0.0389968  -0.6479611   0.1544002), wk =   0.0039062
        k(   36) = (  -0.0362803  -0.6520187   0.2304115), wk =   0.0039062
        k(   37) = (  -0.0552962  -0.6236160  -0.3016677), wk =   0.0039062
        k(   38) = (  -0.0525797  -0.6276735  -0.2256564), wk =   0.0039062
        k(   39) = (  -0.0498631  -0.6317310  -0.1496451), wk =   0.0039062
        k(   40) = (  -0.0471465  -0.6357886  -0.0736337), wk =   0.0039062
        k(   41) = (  -0.0333225  -0.4798846   0.0017832), wk =   0.0039062
        k(   42) = (  -0.0306059  -0.4839421   0.0777945), wk =   0.0039062
        k(   43) = (  -0.0278893  -0.4879996   0.1538058), wk =   0.0039062
        k(   44) = (  -0.0251728  -0.4920571   0.2298171), wk =   0.0039062
        k(   45) = (  -0.0441887  -0.4636545  -0.3022621), wk =   0.0039062
        k(   46) = (  -0.0414722  -0.4677120  -0.2262508), wk =   0.0039062
        k(   47) = (  -0.0387556  -0.4717695  -0.1502395), wk =   0.0039062
        k(   48) = (  -0.0360390  -0.4758270  -0.0742281), wk =   0.0039062
        k(   49) = (  -0.0222150  -0.3199230   0.0011888), wk =   0.0039062
        k(   50) = (  -0.0194984  -0.3239806   0.0772001), wk =   0.0039062
        k(   51) = (  -0.0167818  -0.3280381   0.1532114), wk =   0.0039062
        k(   52) = (  -0.0140653  -0.3320956   0.2292227), wk =   0.0039062
        k(   53) = (  -0.0330813  -0.3036930  -0.3028565), wk =   0.0039062
        k(   54) = (  -0.0303647  -0.3077505  -0.2268452), wk =   0.0039062
        k(   55) = (  -0.0276481  -0.3118080  -0.1508338), wk =   0.0039062
        k(   56) = (  -0.0249315  -0.3158655  -0.0748225), wk =   0.0039062
        k(   57) = (  -0.0111075  -0.1599615   0.0005944), wk =   0.0039062
        k(   58) = (  -0.0083909  -0.1640190   0.0766057), wk =   0.0039062
        k(   59) = (  -0.0056744  -0.1680766   0.1526170), wk =   0.0039062
        k(   60) = (  -0.0029578  -0.1721341   0.2286283), wk =   0.0039062
[...]
        k(  498) = (  -0.1498096  -0.3942944   0.0767161), wk =   0.0039062
        k(  499) = (  -0.1470930  -0.3983520   0.1527274), wk =   0.0039062
        k(  500) = (  -0.1443764  -0.4024095   0.2287387), wk =   0.0039062
        k(  501) = (  -0.1633924  -0.3740068  -0.3033405), wk =   0.0039062
        k(  502) = (  -0.1606759  -0.3780644  -0.2273291), wk =   0.0039062
        k(  503) = (  -0.1579593  -0.3821219  -0.1513178), wk =   0.0039062
        k(  504) = (  -0.1552427  -0.3861794  -0.0753065), wk =   0.0039062
        k(  505) = (  -0.1414187  -0.2302754   0.0001104), wk =   0.0039062
        k(  506) = (  -0.1387021  -0.2343329   0.0761217), wk =   0.0039062
        k(  507) = (  -0.1359855  -0.2383904   0.1521330), wk =   0.0039062
        k(  508) = (  -0.1332690  -0.2424480   0.2281444), wk =   0.0039062
        k(  509) = (  -0.1522849  -0.2140453  -0.3039348), wk =   0.0039062
        k(  510) = (  -0.1495684  -0.2181028  -0.2279235), wk =   0.0039062
        k(  511) = (  -0.1468518  -0.2221604  -0.1519122), wk =   0.0039062
        k(  512) = (  -0.1441352  -0.2262179  -0.0759009), wk =   0.0039062

                       cryst. coord.
        k(    1) = (   0.0000000   0.0000000   0.0000000), wk =   0.0039062
        k(    2) = (  -0.0000000   0.0000000   0.1250000), wk =   0.0039062
        k(    3) = (  -0.0000000   0.0000000   0.2500000), wk =   0.0039062
        k(    4) = (   0.0000000  -0.0000000   0.3750000), wk =   0.0039062
        k(    5) = (   0.0000000   0.0000000  -0.5000000), wk =   0.0039062
        k(    6) = (  -0.0000000   0.0000000  -0.3750000), wk =   0.0039062
        k(    7) = (   0.0000000   0.0000000  -0.2500000), wk =   0.0039062
        k(    8) = (   0.0000000   0.0000000  -0.1250000), wk =   0.0039062
        k(    9) = (   0.0000000   0.1250000  -0.0000000), wk =   0.0039062
        k(   10) = (  -0.0000000   0.1250000   0.1250000), wk =   0.0039062
        k(   11) = (   0.0000000   0.1250000   0.2500000), wk =   0.0039062
        k(   12) = (   0.0000000   0.1250000   0.3750000), wk =   0.0039062
        k(   13) = (   0.0000000   0.1250000  -0.5000000), wk =   0.0039062
        k(   14) = (   0.0000000   0.1250000  -0.3750000), wk =   0.0039062
        k(   15) = (   0.0000000   0.1250000  -0.2500000), wk =   0.0039062
        k(   16) = (   0.0000000   0.1250000  -0.1250000), wk =   0.0039062
        k(   17) = (   0.0000000   0.2500000  -0.0000000), wk =   0.0039062
        k(   18) = (   0.0000000   0.2500000   0.1250000), wk =   0.0039062
        k(   19) = (  -0.0000000   0.2500000   0.2500000), wk =   0.0039062
        k(   20) = (   0.0000000   0.2500000   0.3750000), wk =   0.0039062
        k(   21) = (   0.0000000   0.2500000  -0.5000000), wk =   0.0039062
        k(   22) = (   0.0000000   0.2500000  -0.3750000), wk =   0.0039062
        k(   23) = (   0.0000000   0.2500000  -0.2500000), wk =   0.0039062
        k(   24) = (   0.0000000   0.2500000  -0.1250000), wk =   0.0039062
        k(   25) = (  -0.0000000   0.3750000   0.0000000), wk =   0.0039062
        k(   26) = (  -0.0000000   0.3750000   0.1250000), wk =   0.0039062
        k(   27) = (  -0.0000000   0.3750000   0.2500000), wk =   0.0039062
        k(   28) = (   0.0000000   0.3750000   0.3750000), wk =   0.0039062
        k(   29) = (  -0.0000000   0.3750000  -0.5000000), wk =   0.0039062
        k(   30) = (  -0.0000000   0.3750000  -0.3750000), wk =   0.0039062
        k(   31) = (   0.0000000   0.3750000  -0.2500000), wk =   0.0039062
        k(   32) = (  -0.0000000   0.3750000  -0.1250000), wk =   0.0039062
        k(   33) = (  -0.0000000  -0.5000000   0.0000000), wk =   0.0039062
        k(   34) = (  -0.0000000  -0.5000000   0.1250000), wk =   0.0039062
        k(   35) = (  -0.0000000  -0.5000000   0.2500000), wk =   0.0039062
        k(   36) = (  -0.0000000  -0.5000000   0.3750000), wk =   0.0039062
        k(   37) = (   0.0000000  -0.5000000  -0.5000000), wk =   0.0039062
        k(   38) = (  -0.0000000  -0.5000000  -0.3750000), wk =   0.0039062
        k(   39) = (   0.0000000  -0.5000000  -0.2500000), wk =   0.0039062
        k(   40) = (  -0.0000000  -0.5000000  -0.1250000), wk =   0.0039062
        k(   41) = (   0.0000000  -0.3750000   0.0000000), wk =   0.0039062
        k(   42) = (   0.0000000  -0.3750000   0.1250000), wk =   0.0039062
        k(   43) = (  -0.0000000  -0.3750000   0.2500000), wk =   0.0039062
        k(   44) = (   0.0000000  -0.3750000   0.3750000), wk =   0.0039062
        k(   45) = (   0.0000000  -0.3750000  -0.5000000), wk =   0.0039062
        k(   46) = (  -0.0000000  -0.3750000  -0.3750000), wk =   0.0039062
        k(   47) = (   0.0000000  -0.3750000  -0.2500000), wk =   0.0039062
        k(   48) = (   0.0000000  -0.3750000  -0.1250000), wk =   0.0039062
        k(   49) = (  -0.0000000  -0.2500000   0.0000000), wk =   0.0039062
        k(   50) = (  -0.0000000  -0.2500000   0.1250000), wk =   0.0039062
        k(   51) = (  -0.0000000  -0.2500000   0.2500000), wk =   0.0039062
        k(   52) = (  -0.0000000  -0.2500000   0.3750000), wk =   0.0039062
        k(   53) = (  -0.0000000  -0.2500000  -0.5000000), wk =   0.0039062
        k(   54) = (   0.0000000  -0.2500000  -0.3750000), wk =   0.0039062
        k(   55) = (   0.0000000  -0.2500000  -0.2500000), wk =   0.0039062
        k(   56) = (   0.0000000  -0.2500000  -0.1250000), wk =   0.0039062
        k(   57) = (  -0.0000000  -0.1250000   0.0000000), wk =   0.0039062
        k(   58) = (  -0.0000000  -0.1250000   0.1250000), wk =   0.0039062
        k(   59) = (  -0.0000000  -0.1250000   0.2500000), wk =   0.0039062
        k(   60) = (  -0.0000000  -0.1250000   0.3750000), wk =   0.0039062
[...]
        k(  498) = (  -0.1250000  -0.2500000   0.1250000), wk =   0.0039062
        k(  499) = (  -0.1250000  -0.2500000   0.2500000), wk =   0.0039062
        k(  500) = (  -0.1250000  -0.2500000   0.3750000), wk =   0.0039062
        k(  501) = (  -0.1250000  -0.2500000  -0.5000000), wk =   0.0039062
        k(  502) = (  -0.1250000  -0.2500000  -0.3750000), wk =   0.0039062
        k(  503) = (  -0.1250000  -0.2500000  -0.2500000), wk =   0.0039062
        k(  504) = (  -0.1250000  -0.2500000  -0.1250000), wk =   0.0039062
        k(  505) = (  -0.1250000  -0.1250000  -0.0000000), wk =   0.0039062
        k(  506) = (  -0.1250000  -0.1250000   0.1250000), wk =   0.0039062
        k(  507) = (  -0.1250000  -0.1250000   0.2500000), wk =   0.0039062
        k(  508) = (  -0.1250000  -0.1250000   0.3750000), wk =   0.0039062
        k(  509) = (  -0.1250000  -0.1250000  -0.5000000), wk =   0.0039062
        k(  510) = (  -0.1250000  -0.1250000  -0.3750000), wk =   0.0039062
        k(  511) = (  -0.1250000  -0.1250000  -0.2500000), wk =   0.0039062
        k(  512) = (  -0.1250000  -0.1250000  -0.1250000), wk =   0.0039062

     Initial potential from superposition of free atoms

     starting charge       7.9990, renormalised to       8.0000
     Starting wfcs are    8 randomized atomic wfcs

     Self-consistent Calculation

     iteration #  1     ecut=    40.00 Ry     beta= 0.10
     Davidson diagonalization with overlap

     ethr =  1.00E-02,  avg # of iterations =  3.8

     Threshold (ethr) on eigenvalues was too large:
     Diagonalizing with lowered threshold

     Davidson diagonalization with overlap

     ethr =  1.05E-04,  avg # of iterations =  4.5

     End of self-consistent calculation

          k = 0.0000 0.0000 0.0000 (   727 PWs)   bands (ev):

    -3.1827   3.7330   4.4529  21.7344  22.2269  22.8515  23.7681  24.2178

     occupation numbers
     1.0000   1.0000   1.0000   0.0000   0.0000   0.0000   0.0000   0.0000

[...]

          k =-0.0109 0.0162-0.3040 (   722 PWs)   bands (ev):

[...]

          k = 0.3771 0.0550-0.0740 (   727 PWs)   bands (ev):

[...]

          k =-0.1441-0.2262-0.0759 (   725 PWs)   bands (ev):

    -1.6419   3.9278   7.2050  14.4534  18.0077  19.6557  21.2372  21.8308

     occupation numbers
     1.0000   1.0000   1.0000   0.0000   0.0000   0.0000   0.0000   0.0000

     the Fermi energy is    12.5994 ev

!    total energy              =     -15.76944046 Ry
     estimated scf accuracy    <       0.00893127 Ry
     smearing contrib. (-TS)   =      -0.00013964 Ry
     internal energy E=F+TS    =     -15.76930082 Ry

     The total energy is F=E-TS. E is the sum of the following terms:
     one-electron contribution =      10.27687597 Ry
     hartree contribution      =       0.05453639 Ry
     xc contribution           =      -5.09387341 Ry
     ewald contribution        =     -21.00683976 Ry

     convergence has been achieved in   1 iterations

     Forces acting on atoms (cartesian axes, Ry/au):

     atom    1 type  1   force =     0.00050228    0.00262480    0.00123805
     atom    2 type  1   force =    -0.00050228   -0.00262480   -0.00123805
     The non-local contrib.  to forces
     atom    1 type  1   force =    -0.00130856    0.00251155    0.00412089
     atom    2 type  1   force =     0.00129992   -0.00251817   -0.00411463
     The ionic contribution  to forces
     atom    1 type  1   force =    -0.00952713   -0.03390857    0.00776813
     atom    2 type  1   force =     0.00952713    0.03390857   -0.00776813
     The local contribution  to forces
     atom    1 type  1   force =     0.01177492    0.03538331   -0.01168140
     atom    2 type  1   force =    -0.01176680   -0.03537791    0.01167809
     The core correction contribution to forces
     atom    1 type  1   force =     0.00000000    0.00000000    0.00000000
     atom    2 type  1   force =     0.00000000    0.00000000    0.00000000
     The Hubbard contrib.    to forces
     atom    1 type  1   force =     0.00000000    0.00000000    0.00000000
     atom    2 type  1   force =     0.00000000    0.00000000    0.00000000
     The SCF correction term to forces
     atom    1 type  1   force =    -0.00043729   -0.00136214    0.00103198
     atom    2 type  1   force =     0.00043713    0.00136207   -0.00103181

     Total force =     0.004165     Total SCF correction =     0.002495
     SCF correction compared to forces is large: reduce conv_thr to get better values

     Computing stress (Cartesian axis) and pressure

          total   stress  (Ry/bohr**3)                   (kbar)     P=      129.65
   0.00082831   0.00000557   0.00018312          121.85        0.82       26.94
   0.00000557   0.00114748  -0.00013651            0.82      168.80      -20.08
   0.00018312  -0.00013651   0.00066826           26.94      -20.08       98.30

     kinetic stress (kbar)   3928.83     -2.25     21.26
                               -2.25   3933.88    -16.01
                               21.26    -16.01   3927.90

     local   stress (kbar)   -664.27    -12.10    -53.49
                              -12.10  -1209.11     36.80
                              -53.49     36.80   -409.52

     nonloc. stress (kbar)   4323.13      1.98     13.90
                                1.98   4454.37    -13.54
                               13.90    -13.54   4304.07

     hartree stress (kbar)     18.87      0.11      0.12
                                0.11     24.59      1.57
                                0.12      1.57      3.82

     exc-cor stress (kbar)  -1343.92      0.00      0.00
                                0.00  -1343.92      0.00
                                0.00      0.00  -1343.92

     corecor stress (kbar)      0.00      0.00      0.00
                                0.00      0.00      0.00
                                0.00      0.00      0.00

     ewald   stress (kbar)  -6140.80     13.08     45.14
                               13.08  -5691.00    -28.90
                               45.14    -28.90  -6384.05

     hubbard stress (kbar)      0.00      0.00      0.00
                                0.00      0.00      0.00
                                0.00      0.00      0.00

     DFT-D   stress (kbar)      0.00      0.00      0.00
                                0.00      0.00      0.00
                                0.00      0.00      0.00

     XDM     stress (kbar)      0.00      0.00      0.00
                                0.00      0.00      0.00
                                0.00      0.00      0.00

     dft-nl  stress (kbar)      0.00      0.00      0.00
                                0.00      0.00      0.00
                                0.00      0.00      0.00

     TS-vdW  stress (kbar)      0.00      0.00      0.00
                                0.00      0.00      0.00
                                0.00      0.00      0.00

     MDB     stress (kbar)      0.00      0.00      0.00
                                0.00      0.00      0.00
                                0.00      0.00      0.00

     3D-RISM stress (kbar)      0.00      0.00      0.00
                                0.00      0.00      0.00
                                0.00      0.00      0.00

     Writing all to output data dir ../tmp/Si/Si.save/ :
     XML data file, charge density, pseudopotentials, collected wavefunctions

     General routines

   This run was terminated on:  18:58:50   6May2024

   JOB DONE.