     Program PWSCF v.7.3.1 starts on  6May2024 at 18:59:57

     Reading input from Si4.pw.in

     Current dimensions of program PWSCF are:
     Max number of different atomic species (ntypx) = 10
     Max number of k-points (npk) =  40000
     Max angular momentum in pseudopotentials (lmaxx) =  4

     Using Slab Decomposition

     bravais-lattice index     =            0
     lattice parameter (alat)  =       5.0387  a.u.
     unit-cell volume          =     187.9307 (a.u.)^3
     number of atoms/cell      =            2
     number of atomic types    =            1
     number of electrons       =         8.00
     number of Kohn-Sham states=            8
     kinetic-energy cutoff     =      40.0000  Ry
     charge density cutoff     =     160.0000  Ry
     scf convergence threshold =      2.0E-02
     mixing beta               =       0.1000
     number of iterations used =            8  plain     mixing
     Exchange-correlation=  SLA  PZ   NOGX NOGC
                           (   1   1   0   0   0   0   0)

     celldm(1)=   5.038679  celldm(2)=   0.000000  celldm(3)=   0.000000
     celldm(4)=   0.000000  celldm(5)=   0.000000  celldm(6)=   0.000000

     crystal axes: (cart. coord. in units of alat)
               a(1) = (   0.995773   0.055113  -0.073480 )
               a(2) = (  -0.503854   0.813149  -0.041487 )
               a(3) = (   0.006577   0.048385   1.749199 )

     reciprocal axes: (cart. coord. in units 2 pi/alat)
               b(1) = (  0.969558  0.599738 -0.020235 )
               b(2) = ( -0.068041  1.185966 -0.032549 )
               b(3) = (  0.039115  0.053322  0.570068 )

     PseudoPot. # 1 for Si read from file:
     ../pseudo/Si.pz-vbc.UPF
     MD5 check sum: 6dfa03ddd5817404712e03e4d12deb78
     Pseudo is Norm-conserving, Zval =  4.0
     Generated by new atomic code, or converted to UPF format
     Using radial grid of  431 points,  2 beta functions with:
                l(1) =   0
                l(2) =   1

     atomic species   valence    mass     pseudopotential
     Si                4.00    28.08600     Si( 1.00)

     No symmetry found

                                    s                        frac. trans.

      isym =  1     identity

 cryst.   s( 1) = (     1          0          0      )
                  (     0          1          0      )
                  (     0          0          1      )

 cart.    s( 1) = (  1.0000000 -0.0000000  0.0000000 )
                  ( -0.0000000  1.0000000 -0.0000000 )
                  (  0.0000000  0.0000000  1.0000000 )

   Cartesian axes

     site n.     atom                  positions (alat units)
         1        Si     tau(   1) = (  -0.0023342   0.5725662   0.3851484  )
         2        Si     tau(   2) = (   0.5008300   0.3440798   1.2490838  )

   Crystallographic axes

     site n.     atom                  positions (cryst. coord.)
         1        Si     tau(   1) = (  0.3333333  0.6666667  0.2500000  )
         2        Si     tau(   2) = (  0.6666667  0.3333333  0.7500000  )

     number of k points=   512  Fermi-Dirac smearing, width (Ry)=  0.0019
                       cart. coord. in units 2pi/alat
        k(    1) = (   0.0000000   0.0000000   0.0000000), wk =   0.0039062
        k(    2) = (   0.0048894   0.0066653   0.0712585), wk =   0.0039062
        k(    3) = (   0.0097788   0.0133305   0.1425171), wk =   0.0039062
        k(    4) = (   0.0146681   0.0199958   0.2137756), wk =   0.0039062
        k(    5) = (  -0.0195575  -0.0266611  -0.2850341), wk =   0.0039062
        k(    6) = (  -0.0146681  -0.0199958  -0.2137756), wk =   0.0039062
        k(    7) = (  -0.0097788  -0.0133305  -0.1425171), wk =   0.0039062
        k(    8) = (  -0.0048894  -0.0066653  -0.0712585), wk =   0.0039062
        k(    9) = (  -0.0085051   0.1482458  -0.0040686), wk =   0.0039062
        k(   10) = (  -0.0036158   0.1549110   0.0671899), wk =   0.0039062
        k(   11) = (   0.0012736   0.1615763   0.1384484), wk =   0.0039062
        k(   12) = (   0.0061630   0.1682415   0.2097069), wk =   0.0039062
        k(   13) = (  -0.0280627   0.1215847  -0.2891027), wk =   0.0039062
        k(   14) = (  -0.0231733   0.1282500  -0.2178442), wk =   0.0039062
        k(   15) = (  -0.0182839   0.1349152  -0.1465857), wk =   0.0039062
        k(   16) = (  -0.0133945   0.1415805  -0.0753272), wk =   0.0039062
        k(   17) = (  -0.0170103   0.2964915  -0.0081373), wk =   0.0039062
        k(   18) = (  -0.0121209   0.3031568   0.0631212), wk =   0.0039062
        k(   19) = (  -0.0072315   0.3098220   0.1343798), wk =   0.0039062
        k(   20) = (  -0.0023422   0.3164873   0.2056383), wk =   0.0039062
        k(   21) = (  -0.0365678   0.2698304  -0.2931714), wk =   0.0039062
        k(   22) = (  -0.0316784   0.2764957  -0.2219129), wk =   0.0039062
        k(   23) = (  -0.0267890   0.2831610  -0.1506543), wk =   0.0039062
        k(   24) = (  -0.0218997   0.2898262  -0.0793958), wk =   0.0039062
        k(   25) = (  -0.0255154   0.4447373  -0.0122059), wk =   0.0039062
        k(   26) = (  -0.0206261   0.4514025   0.0590526), wk =   0.0039062
        k(   27) = (  -0.0157367   0.4580678   0.1303111), wk =   0.0039062
        k(   28) = (  -0.0108473   0.4647331   0.2015697), wk =   0.0039062
        k(   29) = (  -0.0450729   0.4180762  -0.2972400), wk =   0.0039062
        k(   30) = (  -0.0401836   0.4247415  -0.2259815), wk =   0.0039062
        k(   31) = (  -0.0352942   0.4314067  -0.1547230), wk =   0.0039062
        k(   32) = (  -0.0304048   0.4380720  -0.0834644), wk =   0.0039062
        k(   33) = (   0.0340206  -0.5929830   0.0162746), wk =   0.0039062
        k(   34) = (   0.0389100  -0.5863177   0.0875331), wk =   0.0039062
        k(   35) = (   0.0437993  -0.5796525   0.1587916), wk =   0.0039062
        k(   36) = (   0.0486887  -0.5729872   0.2300501), wk =   0.0039062
        k(   37) = (   0.0144631  -0.6196441  -0.2687595), wk =   0.0039062
        k(   38) = (   0.0193525  -0.6129788  -0.1975010), wk =   0.0039062
        k(   39) = (   0.0242418  -0.6063135  -0.1262425), wk =   0.0039062
        k(   40) = (   0.0291312  -0.5996483  -0.0549840), wk =   0.0039062
        k(   41) = (   0.0255154  -0.4447373   0.0122059), wk =   0.0039062
        k(   42) = (   0.0304048  -0.4380720   0.0834644), wk =   0.0039062
        k(   43) = (   0.0352942  -0.4314067   0.1547230), wk =   0.0039062
        k(   44) = (   0.0401836  -0.4247415   0.2259815), wk =   0.0039062
        k(   45) = (   0.0059579  -0.4713983  -0.2728282), wk =   0.0039062
        k(   46) = (   0.0108473  -0.4647331  -0.2015697), wk =   0.0039062
        k(   47) = (   0.0157367  -0.4580678  -0.1303111), wk =   0.0039062
        k(   48) = (   0.0206261  -0.4514025  -0.0590526), wk =   0.0039062
        k(   49) = (   0.0170103  -0.2964915   0.0081373), wk =   0.0039062
        k(   50) = (   0.0218997  -0.2898262   0.0793958), wk =   0.0039062
        k(   51) = (   0.0267890  -0.2831610   0.1506543), wk =   0.0039062
        k(   52) = (   0.0316784  -0.2764957   0.2219129), wk =   0.0039062
        k(   53) = (  -0.0025472  -0.3231526  -0.2768968), wk =   0.0039062
        k(   54) = (   0.0023422  -0.3164873  -0.2056383), wk =   0.0039062
        k(   55) = (   0.0072315  -0.3098220  -0.1343798), wk =   0.0039062
        k(   56) = (   0.0121209  -0.3031568  -0.0631212), wk =   0.0039062
        k(   57) = (   0.0085051  -0.1482458   0.0040686), wk =   0.0039062
        k(   58) = (   0.0133945  -0.1415805   0.0753272), wk =   0.0039062
        k(   59) = (   0.0182839  -0.1349152   0.1465857), wk =   0.0039062
        k(   60) = (   0.0231733  -0.1282500   0.2178442), wk =   0.0039062
[...]
        k(  498) = (  -0.0992951  -0.3647935   0.0819252), wk =   0.0039062
        k(  499) = (  -0.0944058  -0.3581283   0.1531837), wk =   0.0039062
        k(  500) = (  -0.0895164  -0.3514630   0.2244422), wk =   0.0039062
        k(  501) = (  -0.1237420  -0.3981199  -0.2743674), wk =   0.0039062
        k(  502) = (  -0.1188526  -0.3914546  -0.2031089), wk =   0.0039062
        k(  503) = (  -0.1139633  -0.3847893  -0.1318504), wk =   0.0039062
        k(  504) = (  -0.1090739  -0.3781241  -0.0605919), wk =   0.0039062
        k(  505) = (  -0.1126897  -0.2232131   0.0065980), wk =   0.0039062
        k(  506) = (  -0.1078003  -0.2165478   0.0778565), wk =   0.0039062
        k(  507) = (  -0.1029109  -0.2098825   0.1491151), wk =   0.0039062
        k(  508) = (  -0.0980215  -0.2032173   0.2203736), wk =   0.0039062
        k(  509) = (  -0.1322472  -0.2498741  -0.2784361), wk =   0.0039062
        k(  510) = (  -0.1273578  -0.2432089  -0.2071776), wk =   0.0039062
        k(  511) = (  -0.1224684  -0.2365436  -0.1359190), wk =   0.0039062
        k(  512) = (  -0.1175790  -0.2298783  -0.0646605), wk =   0.0039062

                       cryst. coord.
        k(    1) = (   0.0000000   0.0000000   0.0000000), wk =   0.0039062
        k(    2) = (   0.0000000   0.0000000   0.1250000), wk =   0.0039062
        k(    3) = (   0.0000000   0.0000000   0.2500000), wk =   0.0039062
        k(    4) = (   0.0000000   0.0000000   0.3750000), wk =   0.0039062
        k(    5) = (  -0.0000000   0.0000000  -0.5000000), wk =   0.0039062
        k(    6) = (  -0.0000000  -0.0000000  -0.3750000), wk =   0.0039062
        k(    7) = (  -0.0000000   0.0000000  -0.2500000), wk =   0.0039062
        k(    8) = (  -0.0000000   0.0000000  -0.1250000), wk =   0.0039062
        k(    9) = (   0.0000000   0.1250000   0.0000000), wk =   0.0039062
        k(   10) = (   0.0000000   0.1250000   0.1250000), wk =   0.0039062
        k(   11) = (   0.0000000   0.1250000   0.2500000), wk =   0.0039062
        k(   12) = (   0.0000000   0.1250000   0.3750000), wk =   0.0039062
        k(   13) = (   0.0000000   0.1250000  -0.5000000), wk =   0.0039062
        k(   14) = (   0.0000000   0.1250000  -0.3750000), wk =   0.0039062
        k(   15) = (   0.0000000   0.1250000  -0.2500000), wk =   0.0039062
        k(   16) = (   0.0000000   0.1250000  -0.1250000), wk =   0.0039062
        k(   17) = (   0.0000000   0.2500000   0.0000000), wk =   0.0039062
        k(   18) = (   0.0000000   0.2500000   0.1250000), wk =   0.0039062
        k(   19) = (   0.0000000   0.2500000   0.2500000), wk =   0.0039062
        k(   20) = (   0.0000000   0.2500000   0.3750000), wk =   0.0039062
        k(   21) = (   0.0000000   0.2500000  -0.5000000), wk =   0.0039062
        k(   22) = (  -0.0000000   0.2500000  -0.3750000), wk =   0.0039062
        k(   23) = (   0.0000000   0.2500000  -0.2500000), wk =   0.0039062
        k(   24) = (   0.0000000   0.2500000  -0.1250000), wk =   0.0039062
        k(   25) = (   0.0000000   0.3750000   0.0000000), wk =   0.0039062
        k(   26) = (   0.0000000   0.3750000   0.1250000), wk =   0.0039062
        k(   27) = (   0.0000000   0.3750000   0.2500000), wk =   0.0039062
        k(   28) = (   0.0000000   0.3750000   0.3750000), wk =   0.0039062
        k(   29) = (   0.0000000   0.3750000  -0.5000000), wk =   0.0039062
        k(   30) = (   0.0000000   0.3750000  -0.3750000), wk =   0.0039062
        k(   31) = (   0.0000000   0.3750000  -0.2500000), wk =   0.0039062
        k(   32) = (   0.0000000   0.3750000  -0.1250000), wk =   0.0039062
        k(   33) = (  -0.0000000  -0.5000000  -0.0000000), wk =   0.0039062
        k(   34) = (   0.0000000  -0.5000000   0.1250000), wk =   0.0039062
        k(   35) = (  -0.0000000  -0.5000000   0.2500000), wk =   0.0039062
        k(   36) = (   0.0000000  -0.5000000   0.3750000), wk =   0.0039062
        k(   37) = (  -0.0000000  -0.5000000  -0.5000000), wk =   0.0039062
        k(   38) = (  -0.0000000  -0.5000000  -0.3750000), wk =   0.0039062
        k(   39) = (  -0.0000000  -0.5000000  -0.2500000), wk =   0.0039062
        k(   40) = (  -0.0000000  -0.5000000  -0.1250000), wk =   0.0039062
        k(   41) = (  -0.0000000  -0.3750000  -0.0000000), wk =   0.0039062
        k(   42) = (  -0.0000000  -0.3750000   0.1250000), wk =   0.0039062
        k(   43) = (  -0.0000000  -0.3750000   0.2500000), wk =   0.0039062
        k(   44) = (  -0.0000000  -0.3750000   0.3750000), wk =   0.0039062
        k(   45) = (  -0.0000000  -0.3750000  -0.5000000), wk =   0.0039062
        k(   46) = (  -0.0000000  -0.3750000  -0.3750000), wk =   0.0039062
        k(   47) = (  -0.0000000  -0.3750000  -0.2500000), wk =   0.0039062
        k(   48) = (  -0.0000000  -0.3750000  -0.1250000), wk =   0.0039062
        k(   49) = (  -0.0000000  -0.2500000  -0.0000000), wk =   0.0039062
        k(   50) = (  -0.0000000  -0.2500000   0.1250000), wk =   0.0039062
        k(   51) = (  -0.0000000  -0.2500000   0.2500000), wk =   0.0039062
        k(   52) = (   0.0000000  -0.2500000   0.3750000), wk =   0.0039062
        k(   53) = (  -0.0000000  -0.2500000  -0.5000000), wk =   0.0039062
        k(   54) = (  -0.0000000  -0.2500000  -0.3750000), wk =   0.0039062
        k(   55) = (  -0.0000000  -0.2500000  -0.2500000), wk =   0.0039062
        k(   56) = (  -0.0000000  -0.2500000  -0.1250000), wk =   0.0039062
        k(   57) = (  -0.0000000  -0.1250000  -0.0000000), wk =   0.0039062
        k(   58) = (  -0.0000000  -0.1250000   0.1250000), wk =   0.0039062
        k(   59) = (   0.0000000  -0.1250000   0.2500000), wk =   0.0039062
        k(   60) = (   0.0000000  -0.1250000   0.3750000), wk =   0.0039062
[...]
        k(  498) = (  -0.1250000  -0.2500000   0.1250000), wk =   0.0039062
        k(  499) = (  -0.1250000  -0.2500000   0.2500000), wk =   0.0039062
        k(  500) = (  -0.1250000  -0.2500000   0.3750000), wk =   0.0039062
        k(  501) = (  -0.1250000  -0.2500000  -0.5000000), wk =   0.0039062
        k(  502) = (  -0.1250000  -0.2500000  -0.3750000), wk =   0.0039062
        k(  503) = (  -0.1250000  -0.2500000  -0.2500000), wk =   0.0039062
        k(  504) = (  -0.1250000  -0.2500000  -0.1250000), wk =   0.0039062
        k(  505) = (  -0.1250000  -0.1250000   0.0000000), wk =   0.0039062
        k(  506) = (  -0.1250000  -0.1250000   0.1250000), wk =   0.0039062
        k(  507) = (  -0.1250000  -0.1250000   0.2500000), wk =   0.0039062
        k(  508) = (  -0.1250000  -0.1250000   0.3750000), wk =   0.0039062
        k(  509) = (  -0.1250000  -0.1250000  -0.5000000), wk =   0.0039062
        k(  510) = (  -0.1250000  -0.1250000  -0.3750000), wk =   0.0039062
        k(  511) = (  -0.1250000  -0.1250000  -0.2500000), wk =   0.0039062
        k(  512) = (  -0.1250000  -0.1250000  -0.1250000), wk =   0.0039062

     Initial potential from superposition of free atoms

     starting charge       7.9990, renormalised to       8.0000
     Starting wfcs are    8 randomized atomic wfcs

     Self-consistent Calculation

     iteration #  1     ecut=    40.00 Ry     beta= 0.10
     Davidson diagonalization with overlap

     ethr =  1.00E-02,  avg # of iterations =  3.4

     Threshold (ethr) on eigenvalues was too large:
     Diagonalizing with lowered threshold

     Davidson diagonalization with overlap

     ethr =  9.88E-05,  avg # of iterations =  4.7

     End of self-consistent calculation

          k = 0.0000 0.0000 0.0000 (   787 PWs)   bands (ev):

    -3.6746   2.3060   3.6162  20.1112  20.5703  21.0277  21.6170  22.8315

     occupation numbers
     1.0000   1.0000   1.0000   0.0000   0.0000   0.0000   0.0000   0.0000

[...]

          k =-0.0196-0.0267-0.2850 (   802 PWs)   bands (ev):

[...]

          k = 0.3672 0.0700-0.0748 (   799 PWs)   bands (ev):

[...]

          k =-0.1176-0.2299-0.0647 (   803 PWs)   bands (ev):

    -2.2367   2.1402   6.5361  13.3371  14.9600  17.9345  18.6488  19.8563

     occupation numbers
     1.0000   1.0000   1.0000   0.0000   0.0000   0.0000   0.0000   0.0000

     the Fermi energy is    11.1064 ev

!    total energy              =     -15.78115406 Ry
     estimated scf accuracy    <       0.00810157 Ry
     smearing contrib. (-TS)   =      -0.00011437 Ry
     internal energy E=F+TS    =     -15.78103968 Ry

     The total energy is F=E-TS. E is the sum of the following terms:
     one-electron contribution =       9.39461611 Ry
     hartree contribution      =       0.07286884 Ry
     xc contribution           =      -4.94959566 Ry
     ewald contribution        =     -20.29892899 Ry

     convergence has been achieved in   1 iterations

     Forces acting on atoms (cartesian axes, Ry/au):

     atom    1 type  1   force =     0.00017407   -0.00053250    0.00000057
     atom    2 type  1   force =    -0.00017407    0.00053250   -0.00000057
     The non-local contrib.  to forces
     atom    1 type  1   force =     0.00161813   -0.00369835   -0.00091135
     atom    2 type  1   force =    -0.00161855    0.00370436    0.00092252
     The ionic contribution  to forces
     atom    1 type  1   force =    -0.00895891   -0.00760574   -0.00634091
     atom    2 type  1   force =     0.00895891    0.00760574    0.00634091
     The local contribution  to forces
     atom    1 type  1   force =     0.00810684    0.01127290    0.00831381
     atom    2 type  1   force =    -0.00810573   -0.01127958   -0.00832450
     The core correction contribution to forces
     atom    1 type  1   force =     0.00000000    0.00000000    0.00000000
     atom    2 type  1   force =     0.00000000    0.00000000    0.00000000
     The Hubbard contrib.    to forces
     atom    1 type  1   force =     0.00000000    0.00000000    0.00000000
     atom    2 type  1   force =     0.00000000    0.00000000    0.00000000
     The SCF correction term to forces
     atom    1 type  1   force =    -0.00059169   -0.00050155   -0.00106059
     atom    2 type  1   force =     0.00059160    0.00050173    0.00106088

     Total force =     0.000792     Total SCF correction =     0.001858
     SCF correction compared to forces is large: reduce conv_thr to get better values

     Computing stress (Cartesian axis) and pressure

          total   stress  (Ry/bohr**3)                   (kbar)     P=       -1.75
  -0.00020953  -0.00026253   0.00009724          -30.82      -38.62       14.30
  -0.00026253   0.00000167   0.00008332          -38.62        0.25       12.26
   0.00009724   0.00008332   0.00017215           14.30       12.26       25.32

     kinetic stress (kbar)   3312.70    -25.20     13.00
                              -25.20   3335.88     12.22
                               13.00     12.22   3406.33

     local   stress (kbar)   -935.44    179.85    -62.94
                              179.85  -1097.70    -26.15
                              -62.94    -26.15   -358.05

     nonloc. stress (kbar)   3909.86    -33.75     18.30
                              -33.75   3943.49     12.74
                               18.30     12.74   3843.54

     hartree stress (kbar)     29.06     -6.18      0.00
                               -6.18     34.17     -2.01
                                0.00     -2.01     -6.19

     exc-cor stress (kbar)  -1177.89      0.00      0.00
                                0.00  -1177.89      0.00
                                0.00      0.00  -1177.89

     corecor stress (kbar)      0.00      0.00      0.00
                                0.00      0.00      0.00
                                0.00      0.00      0.00

     ewald   stress (kbar)  -5169.12   -153.34     45.95
                             -153.34  -5037.71     15.46
                               45.95     15.46  -5682.41

     hubbard stress (kbar)      0.00      0.00      0.00
                                0.00      0.00      0.00
                                0.00      0.00      0.00

     DFT-D   stress (kbar)      0.00      0.00      0.00
                                0.00      0.00      0.00
                                0.00      0.00      0.00

     XDM     stress (kbar)      0.00      0.00      0.00
                                0.00      0.00      0.00
                                0.00      0.00      0.00

     dft-nl  stress (kbar)      0.00      0.00      0.00
                                0.00      0.00      0.00
                                0.00      0.00      0.00

     TS-vdW  stress (kbar)      0.00      0.00      0.00
                                0.00      0.00      0.00
                                0.00      0.00      0.00

     MDB     stress (kbar)      0.00      0.00      0.00
                                0.00      0.00      0.00
                                0.00      0.00      0.00

     3D-RISM stress (kbar)      0.00      0.00      0.00
                                0.00      0.00      0.00
                                0.00      0.00      0.00

     Writing all to output data dir ../tmp/Si/Si.save/ :
     XML data file, charge density, pseudopotentials, collected wavefunctions

     General routines

   This run was terminated on:  19: 0:12   6May2024

   JOB DONE.