     Program PWSCF v.7.3.1 starts on  6May2024 at 19: 0:42

     Reading input from Si6.pw.in

     Current dimensions of program PWSCF are:
     Max number of different atomic species (ntypx) = 10
     Max number of k-points (npk) =  40000
     Max angular momentum in pseudopotentials (lmaxx) =  4

     Using Slab Decomposition

     bravais-lattice index     =            0
     lattice parameter (alat)  =       5.1504  a.u.
     unit-cell volume          =     203.4246 (a.u.)^3
     number of atoms/cell      =            2
     number of atomic types    =            1
     number of electrons       =         8.00
     number of Kohn-Sham states=            8
     kinetic-energy cutoff     =      40.0000  Ry
     charge density cutoff     =     160.0000  Ry
     scf convergence threshold =      2.0E-02
     mixing beta               =       0.1000
     number of iterations used =            8  plain     mixing
     Exchange-correlation=  SLA  PZ   NOGX NOGC
                           (   1   1   0   0   0   0   0)

     celldm(1)=   5.150448  celldm(2)=   0.000000  celldm(3)=   0.000000
     celldm(4)=   0.000000  celldm(5)=   0.000000  celldm(6)=   0.000000

     crystal axes: (cart. coord. in units of alat)
               a(1) = (   0.998939  -0.036332  -0.028293 )
               a(2) = (  -0.439325   0.887722  -0.020249 )
               a(3) = (   0.059252  -0.044732   1.709701 )

     reciprocal axes: (cart. coord. in units 2 pi/alat)
               b(1) = (  1.018754  0.503667 -0.022129 )
               b(2) = (  0.042570  1.148198  0.028566 )
               b(3) = (  0.017363  0.021933  0.584870 )

     PseudoPot. # 1 for Si read from file:
     ../pseudo/Si.pz-vbc.UPF
     MD5 check sum: 6dfa03ddd5817404712e03e4d12deb78
     Pseudo is Norm-conserving, Zval =  4.0
     Generated by new atomic code, or converted to UPF format
     Using radial grid of  431 points,  2 beta functions with:
                l(1) =   0
                l(2) =   1

     atomic species   valence    mass     pseudopotential
     Si                4.00    28.08600     Si( 1.00)

     No symmetry found

                                    s                        frac. trans.

      isym =  1     identity

 cryst.   s( 1) = (     1          0          0      )
                  (     0          1          0      )
                  (     0          0          1      )

 cart.    s( 1) = (  1.0000000 -0.0000000  0.0000000 )
                  (  0.0000000  1.0000000 -0.0000000 )
                  (  0.0000000  0.0000000  1.0000000 )

   Cartesian axes

     site n.     atom                  positions (alat units)
         1        Si     tau(   1) = (   0.0549092   0.5685208   0.4044952  )
         2        Si     tau(   2) = (   0.5639568   0.2381366   1.2566642  )

   Crystallographic axes

     site n.     atom                  positions (cryst. coord.)
         1        Si     tau(   1) = (  0.3333333  0.6666667  0.2500000  )
         2        Si     tau(   2) = (  0.6666667  0.3333333  0.7500000  )

     number of k points=   512  Fermi-Dirac smearing, width (Ry)=  0.0019
                       cart. coord. in units 2pi/alat
        k(    1) = (   0.0000000   0.0000000   0.0000000), wk =   0.0039062
        k(    2) = (   0.0021704   0.0027417   0.0731087), wk =   0.0039062
        k(    3) = (   0.0043407   0.0054834   0.1462174), wk =   0.0039062
        k(    4) = (   0.0065111   0.0082250   0.2193262), wk =   0.0039062
        k(    5) = (  -0.0086815  -0.0109667  -0.2924349), wk =   0.0039062
        k(    6) = (  -0.0065111  -0.0082250  -0.2193262), wk =   0.0039062
        k(    7) = (  -0.0043407  -0.0054834  -0.1462174), wk =   0.0039062
        k(    8) = (  -0.0021704  -0.0027417  -0.0731087), wk =   0.0039062
        k(    9) = (   0.0053212   0.1435247   0.0035707), wk =   0.0039062
        k(   10) = (   0.0074916   0.1462664   0.0766795), wk =   0.0039062
        k(   11) = (   0.0096620   0.1490081   0.1497882), wk =   0.0039062
        k(   12) = (   0.0118323   0.1517498   0.2228969), wk =   0.0039062
        k(   13) = (  -0.0033603   0.1325580  -0.2888641), wk =   0.0039062
        k(   14) = (  -0.0011899   0.1352997  -0.2157554), wk =   0.0039062
        k(   15) = (   0.0009805   0.1380414  -0.1426467), wk =   0.0039062
        k(   16) = (   0.0031509   0.1407831  -0.0695380), wk =   0.0039062
        k(   17) = (   0.0106425   0.2870495   0.0071415), wk =   0.0039062
        k(   18) = (   0.0128128   0.2897912   0.0802502), wk =   0.0039062
        k(   19) = (   0.0149832   0.2925329   0.1533589), wk =   0.0039062
        k(   20) = (   0.0171536   0.2952745   0.2264676), wk =   0.0039062
        k(   21) = (   0.0019610   0.2760828  -0.2852934), wk =   0.0039062
        k(   22) = (   0.0041314   0.2788245  -0.2121847), wk =   0.0039062
        k(   23) = (   0.0063017   0.2815661  -0.1390759), wk =   0.0039062
        k(   24) = (   0.0084721   0.2843078  -0.0659672), wk =   0.0039062
        k(   25) = (   0.0159637   0.4305742   0.0107122), wk =   0.0039062
        k(   26) = (   0.0181341   0.4333159   0.0838210), wk =   0.0039062
        k(   27) = (   0.0203044   0.4360576   0.1569297), wk =   0.0039062
        k(   28) = (   0.0224748   0.4387993   0.2300384), wk =   0.0039062
        k(   29) = (   0.0072822   0.4196075  -0.2817226), wk =   0.0039062
        k(   30) = (   0.0094526   0.4223492  -0.2086139), wk =   0.0039062
        k(   31) = (   0.0116230   0.4250909  -0.1355052), wk =   0.0039062
        k(   32) = (   0.0137933   0.4278326  -0.0623965), wk =   0.0039062
        k(   33) = (  -0.0212849  -0.5740990  -0.0142830), wk =   0.0039062
        k(   34) = (  -0.0191146  -0.5713573   0.0588257), wk =   0.0039062
        k(   35) = (  -0.0169442  -0.5686156   0.1319345), wk =   0.0039062
        k(   36) = (  -0.0147738  -0.5658740   0.2050432), wk =   0.0039062
        k(   37) = (  -0.0299664  -0.5850657  -0.3067178), wk =   0.0039062
        k(   38) = (  -0.0277960  -0.5823240  -0.2336091), wk =   0.0039062
        k(   39) = (  -0.0256257  -0.5795824  -0.1605004), wk =   0.0039062
        k(   40) = (  -0.0234553  -0.5768407  -0.0873917), wk =   0.0039062
        k(   41) = (  -0.0159637  -0.4305742  -0.0107122), wk =   0.0039062
        k(   42) = (  -0.0137933  -0.4278326   0.0623965), wk =   0.0039062
        k(   43) = (  -0.0116230  -0.4250909   0.1355052), wk =   0.0039062
        k(   44) = (  -0.0094526  -0.4223492   0.2086139), wk =   0.0039062
        k(   45) = (  -0.0246452  -0.4415410  -0.3031471), wk =   0.0039062
        k(   46) = (  -0.0224748  -0.4387993  -0.2300384), wk =   0.0039062
        k(   47) = (  -0.0203044  -0.4360576  -0.1569297), wk =   0.0039062
        k(   48) = (  -0.0181341  -0.4333159  -0.0838210), wk =   0.0039062
        k(   49) = (  -0.0106425  -0.2870495  -0.0071415), wk =   0.0039062
        k(   50) = (  -0.0084721  -0.2843078   0.0659672), wk =   0.0039062
        k(   51) = (  -0.0063017  -0.2815661   0.1390759), wk =   0.0039062
        k(   52) = (  -0.0041314  -0.2788245   0.2121847), wk =   0.0039062
        k(   53) = (  -0.0193240  -0.2980162  -0.2995764), wk =   0.0039062
        k(   54) = (  -0.0171536  -0.2952745  -0.2264676), wk =   0.0039062
        k(   55) = (  -0.0149832  -0.2925329  -0.1533589), wk =   0.0039062
        k(   56) = (  -0.0128128  -0.2897912  -0.0802502), wk =   0.0039062
        k(   57) = (  -0.0053212  -0.1435247  -0.0035707), wk =   0.0039062
        k(   58) = (  -0.0031509  -0.1407831   0.0695380), wk =   0.0039062
        k(   59) = (  -0.0009805  -0.1380414   0.1426467), wk =   0.0039062
        k(   60) = (   0.0011899  -0.1352997   0.2157554), wk =   0.0039062
[...]
        k(  498) = (  -0.1358163  -0.3472662   0.0687333), wk =   0.0039062
        k(  499) = (  -0.1336460  -0.3445245   0.1418420), wk =   0.0039062
        k(  500) = (  -0.1314756  -0.3417829   0.2149507), wk =   0.0039062
        k(  501) = (  -0.1466682  -0.3609746  -0.2968103), wk =   0.0039062
        k(  502) = (  -0.1444978  -0.3582329  -0.2237016), wk =   0.0039062
        k(  503) = (  -0.1423275  -0.3554913  -0.1505929), wk =   0.0039062
        k(  504) = (  -0.1401571  -0.3527496  -0.0774841), wk =   0.0039062
        k(  505) = (  -0.1326655  -0.2064832  -0.0008047), wk =   0.0039062
        k(  506) = (  -0.1304951  -0.2037415   0.0723040), wk =   0.0039062
        k(  507) = (  -0.1283247  -0.2009998   0.1454128), wk =   0.0039062
        k(  508) = (  -0.1261544  -0.1982581   0.2185215), wk =   0.0039062
        k(  509) = (  -0.1413470  -0.2174499  -0.2932395), wk =   0.0039062
        k(  510) = (  -0.1391766  -0.2147082  -0.2201308), wk =   0.0039062
        k(  511) = (  -0.1370062  -0.2119665  -0.1470221), wk =   0.0039062
        k(  512) = (  -0.1348358  -0.2092248  -0.0739134), wk =   0.0039062

                       cryst. coord.
        k(    1) = (   0.0000000   0.0000000   0.0000000), wk =   0.0039062
        k(    2) = (   0.0000000   0.0000000   0.1250000), wk =   0.0039062
        k(    3) = (   0.0000000   0.0000000   0.2500000), wk =   0.0039062
        k(    4) = (   0.0000000   0.0000000   0.3750000), wk =   0.0039062
        k(    5) = (   0.0000000   0.0000000  -0.5000000), wk =   0.0039062
        k(    6) = (   0.0000000  -0.0000000  -0.3750000), wk =   0.0039062
        k(    7) = (   0.0000000   0.0000000  -0.2500000), wk =   0.0039062
        k(    8) = (   0.0000000   0.0000000  -0.1250000), wk =   0.0039062
        k(    9) = (   0.0000000   0.1250000   0.0000000), wk =   0.0039062
        k(   10) = (   0.0000000   0.1250000   0.1250000), wk =   0.0039062
        k(   11) = (  -0.0000000   0.1250000   0.2500000), wk =   0.0039062
        k(   12) = (   0.0000000   0.1250000   0.3750000), wk =   0.0039062
        k(   13) = (   0.0000000   0.1250000  -0.5000000), wk =   0.0039062
        k(   14) = (   0.0000000   0.1250000  -0.3750000), wk =   0.0039062
        k(   15) = (   0.0000000   0.1250000  -0.2500000), wk =   0.0039062
        k(   16) = (   0.0000000   0.1250000  -0.1250000), wk =   0.0039062
        k(   17) = (   0.0000000   0.2500000   0.0000000), wk =   0.0039062
        k(   18) = (   0.0000000   0.2500000   0.1250000), wk =   0.0039062
        k(   19) = (   0.0000000   0.2500000   0.2500000), wk =   0.0039062
        k(   20) = (   0.0000000   0.2500000   0.3750000), wk =   0.0039062
        k(   21) = (   0.0000000   0.2500000  -0.5000000), wk =   0.0039062
        k(   22) = (   0.0000000   0.2500000  -0.3750000), wk =   0.0039062
        k(   23) = (   0.0000000   0.2500000  -0.2500000), wk =   0.0039062
        k(   24) = (   0.0000000   0.2500000  -0.1250000), wk =   0.0039062
        k(   25) = (   0.0000000   0.3750000   0.0000000), wk =   0.0039062
        k(   26) = (  -0.0000000   0.3750000   0.1250000), wk =   0.0039062
        k(   27) = (   0.0000000   0.3750000   0.2500000), wk =   0.0039062
        k(   28) = (  -0.0000000   0.3750000   0.3750000), wk =   0.0039062
        k(   29) = (   0.0000000   0.3750000  -0.5000000), wk =   0.0039062
        k(   30) = (  -0.0000000   0.3750000  -0.3750000), wk =   0.0039062
        k(   31) = (  -0.0000000   0.3750000  -0.2500000), wk =   0.0039062
        k(   32) = (   0.0000000   0.3750000  -0.1250000), wk =   0.0039062
        k(   33) = (  -0.0000000  -0.5000000  -0.0000000), wk =   0.0039062
        k(   34) = (  -0.0000000  -0.5000000   0.1250000), wk =   0.0039062
        k(   35) = (  -0.0000000  -0.5000000   0.2500000), wk =   0.0039062
        k(   36) = (  -0.0000000  -0.5000000   0.3750000), wk =   0.0039062
        k(   37) = (  -0.0000000  -0.5000000  -0.5000000), wk =   0.0039062
        k(   38) = (  -0.0000000  -0.5000000  -0.3750000), wk =   0.0039062
        k(   39) = (   0.0000000  -0.5000000  -0.2500000), wk =   0.0039062
        k(   40) = (  -0.0000000  -0.5000000  -0.1250000), wk =   0.0039062
        k(   41) = (  -0.0000000  -0.3750000   0.0000000), wk =   0.0039062
        k(   42) = (   0.0000000  -0.3750000   0.1250000), wk =   0.0039062
        k(   43) = (   0.0000000  -0.3750000   0.2500000), wk =   0.0039062
        k(   44) = (   0.0000000  -0.3750000   0.3750000), wk =   0.0039062
        k(   45) = (  -0.0000000  -0.3750000  -0.5000000), wk =   0.0039062
        k(   46) = (   0.0000000  -0.3750000  -0.3750000), wk =   0.0039062
        k(   47) = (  -0.0000000  -0.3750000  -0.2500000), wk =   0.0039062
        k(   48) = (   0.0000000  -0.3750000  -0.1250000), wk =   0.0039062
        k(   49) = (  -0.0000000  -0.2500000  -0.0000000), wk =   0.0039062
        k(   50) = (  -0.0000000  -0.2500000   0.1250000), wk =   0.0039062
        k(   51) = (  -0.0000000  -0.2500000   0.2500000), wk =   0.0039062
        k(   52) = (  -0.0000000  -0.2500000   0.3750000), wk =   0.0039062
        k(   53) = (   0.0000000  -0.2500000  -0.5000000), wk =   0.0039062
        k(   54) = (  -0.0000000  -0.2500000  -0.3750000), wk =   0.0039062
        k(   55) = (  -0.0000000  -0.2500000  -0.2500000), wk =   0.0039062
        k(   56) = (   0.0000000  -0.2500000  -0.1250000), wk =   0.0039062
        k(   57) = (  -0.0000000  -0.1250000  -0.0000000), wk =   0.0039062
        k(   58) = (  -0.0000000  -0.1250000   0.1250000), wk =   0.0039062
        k(   59) = (   0.0000000  -0.1250000   0.2500000), wk =   0.0039062
        k(   60) = (  -0.0000000  -0.1250000   0.3750000), wk =   0.0039062
[...]
        k(  498) = (  -0.1250000  -0.2500000   0.1250000), wk =   0.0039062
        k(  499) = (  -0.1250000  -0.2500000   0.2500000), wk =   0.0039062
        k(  500) = (  -0.1250000  -0.2500000   0.3750000), wk =   0.0039062
        k(  501) = (  -0.1250000  -0.2500000  -0.5000000), wk =   0.0039062
        k(  502) = (  -0.1250000  -0.2500000  -0.3750000), wk =   0.0039062
        k(  503) = (  -0.1250000  -0.2500000  -0.2500000), wk =   0.0039062
        k(  504) = (  -0.1250000  -0.2500000  -0.1250000), wk =   0.0039062
        k(  505) = (  -0.1250000  -0.1250000  -0.0000000), wk =   0.0039062
        k(  506) = (  -0.1250000  -0.1250000   0.1250000), wk =   0.0039062
        k(  507) = (  -0.1250000  -0.1250000   0.2500000), wk =   0.0039062
        k(  508) = (  -0.1250000  -0.1250000   0.3750000), wk =   0.0039062
        k(  509) = (  -0.1250000  -0.1250000  -0.5000000), wk =   0.0039062
        k(  510) = (  -0.1250000  -0.1250000  -0.3750000), wk =   0.0039062
        k(  511) = (  -0.1250000  -0.1250000  -0.2500000), wk =   0.0039062
        k(  512) = (  -0.1250000  -0.1250000  -0.1250000), wk =   0.0039062

     Initial potential from superposition of free atoms

     starting charge       7.9990, renormalised to       8.0000
     Starting wfcs are    8 randomized atomic wfcs

     Self-consistent Calculation

     iteration #  1     ecut=    40.00 Ry     beta= 0.10
     Davidson diagonalization with overlap

     ethr =  1.00E-02,  avg # of iterations =  3.0

     Threshold (ethr) on eigenvalues was too large:
     Diagonalizing with lowered threshold

     Davidson diagonalization with overlap

     ethr =  8.24E-05,  avg # of iterations =  4.8

     End of self-consistent calculation

          k = 0.0000 0.0000 0.0000 (   869 PWs)   bands (ev):

    -4.0001   2.0264   3.1971  18.1359  18.7961  19.4089  19.7190  20.2198

     occupation numbers
     1.0000   1.0000   1.0000   0.0000   0.0000   0.0000   0.0000   0.0000

[...]

          k =-0.0087-0.0110-0.2924 (   860 PWs)   bands (ev):

[...]

          k = 0.3745 0.0426-0.0850 (   864 PWs)   bands (ev):

[...]

          k =-0.1348-0.2092-0.0739 (   864 PWs)   bands (ev):

    -2.6911   1.8999   5.8371  12.2815  12.8206  16.8713  17.5114  17.7659

     occupation numbers
     1.0000   1.0000   1.0000   0.0000   0.0000   0.0000   0.0000   0.0000

     the Fermi energy is    10.1063 ev

!    total energy              =     -15.78048046 Ry
     estimated scf accuracy    <       0.00670777 Ry
     smearing contrib. (-TS)   =      -0.00012419 Ry
     internal energy E=F+TS    =     -15.78035626 Ry

     The total energy is F=E-TS. E is the sum of the following terms:
     one-electron contribution =       8.76890868 Ry
     hartree contribution      =       0.08061471 Ry
     xc contribution           =      -4.83986267 Ry
     ewald contribution        =     -19.79001698 Ry

     convergence has been achieved in   1 iterations

     Forces acting on atoms (cartesian axes, Ry/au):

     atom    1 type  1   force =     0.00058730    0.00057423   -0.00048622
     atom    2 type  1   force =    -0.00058730   -0.00057423    0.00048622
     The non-local contrib.  to forces
     atom    1 type  1   force =    -0.00249243   -0.00453046   -0.00238450
     atom    2 type  1   force =     0.00249757    0.00453141    0.00239841
     The ionic contribution  to forces
     atom    1 type  1   force =    -0.01205759   -0.00067479    0.00120100
     atom    2 type  1   force =     0.01205759    0.00067479   -0.00120100
     The local contribution  to forces
     atom    1 type  1   force =     0.01590887    0.00606831    0.00100975
     atom    2 type  1   force =    -0.01591347   -0.00606271   -0.00102225
     The core correction contribution to forces
     atom    1 type  1   force =     0.00000000    0.00000000    0.00000000
     atom    2 type  1   force =     0.00000000    0.00000000    0.00000000
     The Hubbard contrib.    to forces
     atom    1 type  1   force =     0.00000000    0.00000000    0.00000000
     atom    2 type  1   force =     0.00000000    0.00000000    0.00000000
     The SCF correction term to forces
     atom    1 type  1   force =    -0.00077125   -0.00028557   -0.00031156
     atom    2 type  1   force =     0.00077131    0.00028556    0.00031198

     Total force =     0.001350     Total SCF correction =     0.001244
     SCF correction compared to forces is large: reduce conv_thr to get better values

     Computing stress (Cartesian axis) and pressure

          total   stress  (Ry/bohr**3)                   (kbar)     P=      -75.06
  -0.00066064   0.00001815   0.00002955          -97.18        2.67        4.35
   0.00001815  -0.00065576   0.00001751            2.67      -96.47        2.58
   0.00002955   0.00001751  -0.00021424            4.35        2.58      -31.52

     kinetic stress (kbar)   2935.10      3.28      4.75
                                3.28   2942.04      0.91
                                4.75      0.91   3017.97

     local   stress (kbar)   -902.41     88.13     10.09
                               88.13   -901.82    -72.69
                               10.09    -72.69   -624.13

     nonloc. stress (kbar)   3590.67    -15.79     -1.99
                              -15.79   3592.77     16.49
                               -1.99     16.49   3567.65

     hartree stress (kbar)     25.76     -3.93     -0.23
                               -3.93     25.61      1.49
                               -0.23      1.49      6.93

     exc-cor stress (kbar)  -1063.43      0.00      0.00
                                0.00  -1063.43      0.00
                                0.00      0.00  -1063.43

     corecor stress (kbar)      0.00      0.00      0.00
                                0.00      0.00      0.00
                                0.00      0.00      0.00

     ewald   stress (kbar)  -4682.88    -69.02     -8.28
                              -69.02  -4691.63     56.39
                               -8.28     56.39  -4936.50

     hubbard stress (kbar)      0.00      0.00      0.00
                                0.00      0.00      0.00
                                0.00      0.00      0.00

     DFT-D   stress (kbar)      0.00      0.00      0.00
                                0.00      0.00      0.00
                                0.00      0.00      0.00

     XDM     stress (kbar)      0.00      0.00      0.00
                                0.00      0.00      0.00
                                0.00      0.00      0.00

     dft-nl  stress (kbar)      0.00      0.00      0.00
                                0.00      0.00      0.00
                                0.00      0.00      0.00

     TS-vdW  stress (kbar)      0.00      0.00      0.00
                                0.00      0.00      0.00
                                0.00      0.00      0.00

     MDB     stress (kbar)      0.00      0.00      0.00
                                0.00      0.00      0.00
                                0.00      0.00      0.00

     3D-RISM stress (kbar)      0.00      0.00      0.00
                                0.00      0.00      0.00
                                0.00      0.00      0.00

     Writing all to output data dir ../tmp/Si/Si.save/ :
     XML data file, charge density, pseudopotentials, collected wavefunctions

     General routines

   This run was terminated on:  19: 1: 3   6May2024

   JOB DONE.