     Program PWSCF v.7.3.1 starts on  6May2024 at 19: 1:16

     Reading input from Si7.pw.in

     Current dimensions of program PWSCF are:
     Max number of different atomic species (ntypx) = 10
     Max number of k-points (npk) =  40000
     Max angular momentum in pseudopotentials (lmaxx) =  4

     Using Slab Decomposition

     bravais-lattice index     =            0
     lattice parameter (alat)  =       4.9763  a.u.
     unit-cell volume          =     178.0285 (a.u.)^3
     number of atoms/cell      =            2
     number of atomic types    =            1
     number of electrons       =         8.00
     number of Kohn-Sham states=            8
     kinetic-energy cutoff     =      40.0000  Ry
     charge density cutoff     =     160.0000  Ry
     scf convergence threshold =      2.0E-02
     mixing beta               =       0.1000
     number of iterations used =            8  plain     mixing
     Exchange-correlation=  SLA  PZ   NOGX NOGC
                           (   1   1   0   0   0   0   0)

     celldm(1)=   4.976302  celldm(2)=   0.000000  celldm(3)=   0.000000
     celldm(4)=   0.000000  celldm(5)=   0.000000  celldm(6)=   0.000000

     crystal axes: (cart. coord. in units of alat)
               a(1) = (   0.998934   0.002421   0.046087 )
               a(2) = (  -0.434364   0.816720  -0.049576 )
               a(3) = (   0.050578   0.037104   1.769475 )

     reciprocal axes: (cart. coord. in units 2 pi/alat)
               b(1) = (  1.001615  0.530286 -0.039749 )
               b(2) = ( -0.001782  1.221910 -0.025571 )
               b(3) = ( -0.026138  0.020423  0.565458 )

     PseudoPot. # 1 for Si read from file:
     ../pseudo/Si.pz-vbc.UPF
     MD5 check sum: 6dfa03ddd5817404712e03e4d12deb78
     Pseudo is Norm-conserving, Zval =  4.0
     Generated by new atomic code, or converted to UPF format
     Using radial grid of  431 points,  2 beta functions with:
                l(1) =   0
                l(2) =   1

     atomic species   valence    mass     pseudopotential
     Si                4.00    28.08600     Si( 1.00)

     No symmetry found

                                    s                        frac. trans.

      isym =  1     identity

 cryst.   s( 1) = (     1          0          0      )
                  (     0          1          0      )
                  (     0          0          1      )

 cart.    s( 1) = (  1.0000000 -0.0000000 -0.0000000 )
                  ( -0.0000000  1.0000000 -0.0000000 )
                  (  0.0000000  0.0000000  1.0000000 )

   Cartesian axes

     site n.     atom                  positions (alat units)
         1        Si     tau(   1) = (   0.0560466   0.5545631   0.4246808  )
         2        Si     tau(   2) = (   0.5591015   0.3016820   1.3413058  )

   Crystallographic axes

     site n.     atom                  positions (cryst. coord.)
         1        Si     tau(   1) = (  0.3333333  0.6666667  0.2500000  )
         2        Si     tau(   2) = (  0.6666667  0.3333333  0.7500000  )

     number of k points=   512  Fermi-Dirac smearing, width (Ry)=  0.0019
                       cart. coord. in units 2pi/alat
        k(    1) = (   0.0000000   0.0000000   0.0000000), wk =   0.0039062
        k(    2) = (  -0.0032672   0.0025528   0.0706823), wk =   0.0039062
        k(    3) = (  -0.0065344   0.0051057   0.1413646), wk =   0.0039062
        k(    4) = (  -0.0098016   0.0076585   0.2120468), wk =   0.0039062
        k(    5) = (   0.0130688  -0.0102114  -0.2827291), wk =   0.0039062
        k(    6) = (   0.0098016  -0.0076585  -0.2120468), wk =   0.0039062
        k(    7) = (   0.0065344  -0.0051057  -0.1413646), wk =   0.0039062
        k(    8) = (   0.0032672  -0.0025528  -0.0706823), wk =   0.0039062
        k(    9) = (  -0.0002228   0.1527387  -0.0031964), wk =   0.0039062
        k(   10) = (  -0.0034900   0.1552916   0.0674859), wk =   0.0039062
        k(   11) = (  -0.0067572   0.1578444   0.1381682), wk =   0.0039062
        k(   12) = (  -0.0100244   0.1603972   0.2088505), wk =   0.0039062
        k(   13) = (   0.0128461   0.1425274  -0.2859255), wk =   0.0039062
        k(   14) = (   0.0095788   0.1450802  -0.2152432), wk =   0.0039062
        k(   15) = (   0.0063116   0.1476330  -0.1445609), wk =   0.0039062
        k(   16) = (   0.0030444   0.1501859  -0.0738786), wk =   0.0039062
        k(   17) = (  -0.0004455   0.3054774  -0.0063927), wk =   0.0039062
        k(   18) = (  -0.0037127   0.3080303   0.0642895), wk =   0.0039062
        k(   19) = (  -0.0069799   0.3105831   0.1349718), wk =   0.0039062
        k(   20) = (  -0.0102472   0.3131360   0.2056541), wk =   0.0039062
        k(   21) = (   0.0126233   0.2952661  -0.2891219), wk =   0.0039062
        k(   22) = (   0.0093561   0.2978189  -0.2184396), wk =   0.0039062
        k(   23) = (   0.0060889   0.3003718  -0.1477573), wk =   0.0039062
        k(   24) = (   0.0028217   0.3029246  -0.0770750), wk =   0.0039062
        k(   25) = (  -0.0006683   0.4582161  -0.0095891), wk =   0.0039062
        k(   26) = (  -0.0039355   0.4607690   0.0610932), wk =   0.0039062
        k(   27) = (  -0.0072027   0.4633218   0.1317754), wk =   0.0039062
        k(   28) = (  -0.0104699   0.4658747   0.2024577), wk =   0.0039062
        k(   29) = (   0.0124005   0.4480048  -0.2923182), wk =   0.0039062
        k(   30) = (   0.0091333   0.4505576  -0.2216359), wk =   0.0039062
        k(   31) = (   0.0058661   0.4531105  -0.1509537), wk =   0.0039062
        k(   32) = (   0.0025989   0.4556633  -0.0802714), wk =   0.0039062
        k(   33) = (   0.0008911  -0.6109549   0.0127855), wk =   0.0039062
        k(   34) = (  -0.0023761  -0.6084020   0.0834678), wk =   0.0039062
        k(   35) = (  -0.0056433  -0.6058492   0.1541500), wk =   0.0039062
        k(   36) = (  -0.0089105  -0.6032963   0.2248323), wk =   0.0039062
        k(   37) = (   0.0139599  -0.6211662  -0.2699436), wk =   0.0039062
        k(   38) = (   0.0106927  -0.6186134  -0.1992614), wk =   0.0039062
        k(   39) = (   0.0074255  -0.6160605  -0.1285791), wk =   0.0039062
        k(   40) = (   0.0041583  -0.6135077  -0.0578968), wk =   0.0039062
        k(   41) = (   0.0006683  -0.4582161   0.0095891), wk =   0.0039062
        k(   42) = (  -0.0025989  -0.4556633   0.0802714), wk =   0.0039062
        k(   43) = (  -0.0058661  -0.4531105   0.1509537), wk =   0.0039062
        k(   44) = (  -0.0091333  -0.4505576   0.2216359), wk =   0.0039062
        k(   45) = (   0.0137371  -0.4684275  -0.2731400), wk =   0.0039062
        k(   46) = (   0.0104699  -0.4658747  -0.2024577), wk =   0.0039062
        k(   47) = (   0.0072027  -0.4633218  -0.1317754), wk =   0.0039062
        k(   48) = (   0.0039355  -0.4607690  -0.0610932), wk =   0.0039062
        k(   49) = (   0.0004455  -0.3054774   0.0063927), wk =   0.0039062
        k(   50) = (  -0.0028217  -0.3029246   0.0770750), wk =   0.0039062
        k(   51) = (  -0.0060889  -0.3003718   0.1477573), wk =   0.0039062
        k(   52) = (  -0.0093561  -0.2978189   0.2184396), wk =   0.0039062
        k(   53) = (   0.0135144  -0.3156888  -0.2763364), wk =   0.0039062
        k(   54) = (   0.0102472  -0.3131360  -0.2056541), wk =   0.0039062
        k(   55) = (   0.0069799  -0.3105831  -0.1349718), wk =   0.0039062
        k(   56) = (   0.0037127  -0.3080303  -0.0642895), wk =   0.0039062
        k(   57) = (   0.0002228  -0.1527387   0.0031964), wk =   0.0039062
        k(   58) = (  -0.0030444  -0.1501859   0.0738786), wk =   0.0039062
        k(   59) = (  -0.0063116  -0.1476330   0.1445609), wk =   0.0039062
        k(   60) = (  -0.0095788  -0.1450802   0.2152432), wk =   0.0039062
[...]
        k(  498) = (  -0.1280236  -0.3692103   0.0820436), wk =   0.0039062
        k(  499) = (  -0.1312908  -0.3666575   0.1527259), wk =   0.0039062
        k(  500) = (  -0.1345580  -0.3641046   0.2234082), wk =   0.0039062
        k(  501) = (  -0.1116875  -0.3819745  -0.2713678), wk =   0.0039062
        k(  502) = (  -0.1149547  -0.3794217  -0.2006855), wk =   0.0039062
        k(  503) = (  -0.1182219  -0.3768688  -0.1300032), wk =   0.0039062
        k(  504) = (  -0.1214891  -0.3743160  -0.0593209), wk =   0.0039062
        k(  505) = (  -0.1249791  -0.2190244   0.0081650), wk =   0.0039062
        k(  506) = (  -0.1282463  -0.2164716   0.0788473), wk =   0.0039062
        k(  507) = (  -0.1315135  -0.2139187   0.1495296), wk =   0.0039062
        k(  508) = (  -0.1347807  -0.2113659   0.2202118), wk =   0.0039062
        k(  509) = (  -0.1119103  -0.2292358  -0.2745641), wk =   0.0039062
        k(  510) = (  -0.1151775  -0.2266829  -0.2038818), wk =   0.0039062
        k(  511) = (  -0.1184447  -0.2241301  -0.1331996), wk =   0.0039062
        k(  512) = (  -0.1217119  -0.2215773  -0.0625173), wk =   0.0039062

                       cryst. coord.
        k(    1) = (   0.0000000   0.0000000   0.0000000), wk =   0.0039062
        k(    2) = (   0.0000000   0.0000000   0.1250000), wk =   0.0039062
        k(    3) = (   0.0000000   0.0000000   0.2500000), wk =   0.0039062
        k(    4) = (   0.0000000   0.0000000   0.3750000), wk =   0.0039062
        k(    5) = (  -0.0000000  -0.0000000  -0.5000000), wk =   0.0039062
        k(    6) = (   0.0000000  -0.0000000  -0.3750000), wk =   0.0039062
        k(    7) = (  -0.0000000  -0.0000000  -0.2500000), wk =   0.0039062
        k(    8) = (  -0.0000000  -0.0000000  -0.1250000), wk =   0.0039062
        k(    9) = (  -0.0000000   0.1250000   0.0000000), wk =   0.0039062
        k(   10) = (   0.0000000   0.1250000   0.1250000), wk =   0.0039062
        k(   11) = (   0.0000000   0.1250000   0.2500000), wk =   0.0039062
        k(   12) = (   0.0000000   0.1250000   0.3750000), wk =   0.0039062
        k(   13) = (  -0.0000000   0.1250000  -0.5000000), wk =   0.0039062
        k(   14) = (   0.0000000   0.1250000  -0.3750000), wk =   0.0039062
        k(   15) = (  -0.0000000   0.1250000  -0.2500000), wk =   0.0039062
        k(   16) = (  -0.0000000   0.1250000  -0.1250000), wk =   0.0039062
        k(   17) = (  -0.0000000   0.2500000   0.0000000), wk =   0.0039062
        k(   18) = (   0.0000000   0.2500000   0.1250000), wk =   0.0039062
        k(   19) = (   0.0000000   0.2500000   0.2500000), wk =   0.0039062
        k(   20) = (   0.0000000   0.2500000   0.3750000), wk =   0.0039062
        k(   21) = (  -0.0000000   0.2500000  -0.5000000), wk =   0.0039062
        k(   22) = (   0.0000000   0.2500000  -0.3750000), wk =   0.0039062
        k(   23) = (  -0.0000000   0.2500000  -0.2500000), wk =   0.0039062
        k(   24) = (  -0.0000000   0.2500000  -0.1250000), wk =   0.0039062
        k(   25) = (  -0.0000000   0.3750000   0.0000000), wk =   0.0039062
        k(   26) = (   0.0000000   0.3750000   0.1250000), wk =   0.0039062
        k(   27) = (   0.0000000   0.3750000   0.2500000), wk =   0.0039062
        k(   28) = (   0.0000000   0.3750000   0.3750000), wk =   0.0039062
        k(   29) = (  -0.0000000   0.3750000  -0.5000000), wk =   0.0039062
        k(   30) = (   0.0000000   0.3750000  -0.3750000), wk =   0.0039062
        k(   31) = (  -0.0000000   0.3750000  -0.2500000), wk =   0.0039062
        k(   32) = (   0.0000000   0.3750000  -0.1250000), wk =   0.0039062
        k(   33) = (   0.0000000  -0.5000000   0.0000000), wk =   0.0039062
        k(   34) = (   0.0000000  -0.5000000   0.1250000), wk =   0.0039062
        k(   35) = (   0.0000000  -0.5000000   0.2500000), wk =   0.0039062
        k(   36) = (   0.0000000  -0.5000000   0.3750000), wk =   0.0039062
        k(   37) = (  -0.0000000  -0.5000000  -0.5000000), wk =   0.0039062
        k(   38) = (   0.0000000  -0.5000000  -0.3750000), wk =   0.0039062
        k(   39) = (  -0.0000000  -0.5000000  -0.2500000), wk =   0.0039062
        k(   40) = (   0.0000000  -0.5000000  -0.1250000), wk =   0.0039062
        k(   41) = (   0.0000000  -0.3750000   0.0000000), wk =   0.0039062
        k(   42) = (   0.0000000  -0.3750000   0.1250000), wk =   0.0039062
        k(   43) = (   0.0000000  -0.3750000   0.2500000), wk =   0.0039062
        k(   44) = (  -0.0000000  -0.3750000   0.3750000), wk =   0.0039062
        k(   45) = (  -0.0000000  -0.3750000  -0.5000000), wk =   0.0039062
        k(   46) = (  -0.0000000  -0.3750000  -0.3750000), wk =   0.0039062
        k(   47) = (  -0.0000000  -0.3750000  -0.2500000), wk =   0.0039062
        k(   48) = (  -0.0000000  -0.3750000  -0.1250000), wk =   0.0039062
        k(   49) = (   0.0000000  -0.2500000   0.0000000), wk =   0.0039062
        k(   50) = (   0.0000000  -0.2500000   0.1250000), wk =   0.0039062
        k(   51) = (   0.0000000  -0.2500000   0.2500000), wk =   0.0039062
        k(   52) = (   0.0000000  -0.2500000   0.3750000), wk =   0.0039062
        k(   53) = (   0.0000000  -0.2500000  -0.5000000), wk =   0.0039062
        k(   54) = (   0.0000000  -0.2500000  -0.3750000), wk =   0.0039062
        k(   55) = (  -0.0000000  -0.2500000  -0.2500000), wk =   0.0039062
        k(   56) = (  -0.0000000  -0.2500000  -0.1250000), wk =   0.0039062
        k(   57) = (   0.0000000  -0.1250000   0.0000000), wk =   0.0039062
        k(   58) = (   0.0000000  -0.1250000   0.1250000), wk =   0.0039062
        k(   59) = (   0.0000000  -0.1250000   0.2500000), wk =   0.0039062
        k(   60) = (   0.0000000  -0.1250000   0.3750000), wk =   0.0039062
[...]
        k(  498) = (  -0.1250000  -0.2500000   0.1250000), wk =   0.0039062
        k(  499) = (  -0.1250000  -0.2500000   0.2500000), wk =   0.0039062
        k(  500) = (  -0.1250000  -0.2500000   0.3750000), wk =   0.0039062
        k(  501) = (  -0.1250000  -0.2500000  -0.5000000), wk =   0.0039062
        k(  502) = (  -0.1250000  -0.2500000  -0.3750000), wk =   0.0039062
        k(  503) = (  -0.1250000  -0.2500000  -0.2500000), wk =   0.0039062
        k(  504) = (  -0.1250000  -0.2500000  -0.1250000), wk =   0.0039062
        k(  505) = (  -0.1250000  -0.1250000   0.0000000), wk =   0.0039062
        k(  506) = (  -0.1250000  -0.1250000   0.1250000), wk =   0.0039062
        k(  507) = (  -0.1250000  -0.1250000   0.2500000), wk =   0.0039062
        k(  508) = (  -0.1250000  -0.1250000   0.3750000), wk =   0.0039062
        k(  509) = (  -0.1250000  -0.1250000  -0.5000000), wk =   0.0039062
        k(  510) = (  -0.1250000  -0.1250000  -0.3750000), wk =   0.0039062
        k(  511) = (  -0.1250000  -0.1250000  -0.2500000), wk =   0.0039062
        k(  512) = (  -0.1250000  -0.1250000  -0.1250000), wk =   0.0039062

     Initial potential from superposition of free atoms

     starting charge       7.9990, renormalised to       8.0000
     Starting wfcs are    8 randomized atomic wfcs

     Self-consistent Calculation

     iteration #  1     ecut=    40.00 Ry     beta= 0.10
     Davidson diagonalization with overlap

     ethr =  1.00E-02,  avg # of iterations =  3.6

     Threshold (ethr) on eigenvalues was too large:
     Diagonalizing with lowered threshold

     Davidson diagonalization with overlap

     ethr =  1.21E-04,  avg # of iterations =  4.6

     End of self-consistent calculation

          k = 0.0000 0.0000 0.0000 (   753 PWs)   bands (ev):

    -3.4465   2.4445   3.9187  20.8481  20.9927  21.6455  21.7277  24.0326

     occupation numbers
     1.0000   1.0000   1.0000   0.0000   0.0000   0.0000   0.0000   0.0000

          k =-0.0033 0.0026 0.0707 (   746 PWs)   bands (ev):

[...]

          k = 0.3791 0.0436-0.0824 (   764 PWs)   bands (ev):

[...]

          k =-0.1217-0.2216-0.0625 (   762 PWs)   bands (ev):

    -2.0360   2.8979   6.1800  14.1409  16.7573  17.4104  19.9335  21.2786

     occupation numbers
     1.0000   1.0000   1.0000   0.0000   0.0000   0.0000   0.0000   0.0000

     the Fermi energy is    11.8532 ev

!    total energy              =     -15.77339901 Ry
     estimated scf accuracy    <       0.01025469 Ry
     smearing contrib. (-TS)   =      -0.00009381 Ry
     internal energy E=F+TS    =     -15.77330520 Ry

     The total energy is F=E-TS. E is the sum of the following terms:
     one-electron contribution =       9.82326430 Ry
     hartree contribution      =       0.07637739 Ry
     xc contribution           =      -5.03040944 Ry
     ewald contribution        =     -20.64253746 Ry

     convergence has been achieved in   1 iterations

     Forces acting on atoms (cartesian axes, Ry/au):

     atom    1 type  1   force =     0.00137279    0.00020402    0.00003693
     atom    2 type  1   force =    -0.00137279   -0.00020402   -0.00003693
     The non-local contrib.  to forces
     atom    1 type  1   force =     0.00465266    0.00463085    0.00574835
     atom    2 type  1   force =    -0.00465607   -0.00462756   -0.00573561
     The ionic contribution  to forces
     atom    1 type  1   force =    -0.02374236   -0.00946729    0.00809412
     atom    2 type  1   force =     0.02374236    0.00946729   -0.00809412
     The local contribution  to forces
     atom    1 type  1   force =     0.02168313    0.00545165   -0.01673867
     atom    2 type  1   force =    -0.02167943   -0.00545562    0.01672909
     The core correction contribution to forces
     atom    1 type  1   force =     0.00000000    0.00000000    0.00000000
     atom    2 type  1   force =     0.00000000    0.00000000    0.00000000
     The Hubbard contrib.    to forces
     atom    1 type  1   force =     0.00000000    0.00000000    0.00000000
     atom    2 type  1   force =     0.00000000    0.00000000    0.00000000
     The SCF correction term to forces
     atom    1 type  1   force =    -0.00122052   -0.00041154    0.00293482
     atom    2 type  1   force =     0.00122048    0.00041152   -0.00293460

     Total force =     0.001963     Total SCF correction =     0.004532
     SCF correction compared to forces is large: reduce conv_thr to get better values

     Computing stress (Cartesian axis) and pressure

          total   stress  (Ry/bohr**3)                   (kbar)     P=       66.59
   0.00021101  -0.00042431  -0.00013087           31.04      -62.42      -19.25
  -0.00042431   0.00064265  -0.00000581          -62.42       94.54       -0.85
  -0.00013087  -0.00000581   0.00050434          -19.25       -0.85       74.19

     kinetic stress (kbar)   3612.34    -38.53    -17.07
                              -38.53   3637.70      2.46
                              -17.07      2.46   3721.56

     local   stress (kbar)   -910.76    303.42     43.17
                              303.42  -1352.15     50.09
                               43.17     50.09   -124.50

     nonloc. stress (kbar)   4130.30    -69.57    -16.31
                              -69.57   4232.31     -6.81
                              -16.31     -6.81   4039.61

     hartree stress (kbar)     34.42     -6.22      1.50
                               -6.22     43.11     -3.35
                                1.50     -3.35    -14.42

     exc-cor stress (kbar)  -1264.27      0.00      0.00
                                0.00  -1264.27      0.00
                                0.00      0.00  -1264.27

     corecor stress (kbar)      0.00      0.00      0.00
                                0.00      0.00      0.00
                                0.00      0.00      0.00

     ewald   stress (kbar)  -5570.99   -251.50    -30.53
                             -251.50  -5202.16    -43.24
                              -30.53    -43.24  -6283.80

     hubbard stress (kbar)      0.00      0.00      0.00
                                0.00      0.00      0.00
                                0.00      0.00      0.00

     DFT-D   stress (kbar)      0.00      0.00      0.00
                                0.00      0.00      0.00
                                0.00      0.00      0.00

     XDM     stress (kbar)      0.00      0.00      0.00
                                0.00      0.00      0.00
                                0.00      0.00      0.00

     dft-nl  stress (kbar)      0.00      0.00      0.00
                                0.00      0.00      0.00
                                0.00      0.00      0.00

     TS-vdW  stress (kbar)      0.00      0.00      0.00
                                0.00      0.00      0.00
                                0.00      0.00      0.00

     MDB     stress (kbar)      0.00      0.00      0.00
                                0.00      0.00      0.00
                                0.00      0.00      0.00

     3D-RISM stress (kbar)      0.00      0.00      0.00
                                0.00      0.00      0.00
                                0.00      0.00      0.00

     Writing all to output data dir ../tmp/Si/Si.save/ :
     XML data file, charge density, pseudopotentials, collected wavefunctions

     General routines

   This run was terminated on:  19: 1:30   6May2024

   JOB DONE.